%%MatrixMarket matrix coordinate pattern symmetric
209 209 5757
4 1
7 1
24 1
26 1
36 1
37 1
40 1
41 1
45 1
46 1
51 1
56 1
58 1
60 1
62 1
64 1
69 1
71 1
72 1
73 1
74 1
78 1
81 1
86 1
88 1
89 1
99 1
102 1
112 1
113 1
115 1
120 1
123 1
127 1
128 1
129 1
130 1
132 1
137 1
139 1
141 1
143 1
145 1
150 1
155 1
156 1
160 1
161 1
164 1
165 1
175 1
177 1
194 1
197 1
209 1
5 2
8 2
25 2
27 2
37 2
38 2
41 2
42 2
46 2
47 2
52 2
57 2
59 2
61 2
63 2
65 2
70 2
72 2
73 2
74 2
75 2
79 2
82 2
87 2
89 2
90 2
100 2
103 2
113 2
114 2
116 2
121 2
124 2
128 2
129 2
130 2
131 2
133 2
138 2
140 2
142 2
144 2
146 2
151 2
156 2
157 2
161 2
162 2
165 2
166 2
176 2
178 2
195 2
198 2
202 2
205 2
6 3
9 3
26 3
28 3
38 3
39 3
42 3
43 3
47 3
48 3
53 3
58 3
60 3
62 3
64 3
66 3
71 3
73 3
74 3
75 3
76 3
80 3
83 3
88 3
90 3
91 3
101 3
104 3
114 3
115 3
117 3
122 3
125 3
129 3
130 3
131 3
132 3
134 3
139 3
141 3
143 3
145 3
147 3
152 3
157 3
158 3
162 3
163 3
166 3
167 3
177 3
179 3
196 3
199 3
200 3
203 3
7 4
10 4
27 4
29 4
39 4
40 4
43 4
44 4
48 4
49 4
54 4
59 4
61 4
63 4
65 4
67 4
72 4
74 4
75 4
76 4
77 4
81 4
84 4
89 4
91 4
92 4
102 4
105 4
115 4
116 4
118 4
123 4
126 4
130 4
131 4
132 4
133 4
135 4
140 4
142 4
144 4
146 4
148 4
153 4
158 4
159 4
163 4
164 4
167 4
168 4
178 4
180 4
197 4
200 4
205 4
8 5
11 5
28 5
30 5
40 5
41 5
44 5
45 5
49 5
50 5
55 5
60 5
62 5
64 5
66 5
68 5
73 5
75 5
76 5
77 5
78 5
82 5
85 5
90 5
92 5
93 5
103 5
106 5
116 5
117 5
119 5
124 5
127 5
131 5
132 5
133 5
134 5
136 5
141 5
143 5
145 5
147 5
149 5
154 5
159 5
160 5
164 5
165 5
168 5
169 5
179 5
181 5
198 5
202 5
9 6
12 6
29 6
31 6
41 6
42 6
45 6
46 6
50 6
51 6
56 6
61 6
63 6
65 6
67 6
69 6
74 6
76 6
77 6
78 6
79 6
83 6
86 6
91 6
93 6
94 6
104 6
107 6
117 6
118 6
120 6
125 6
128 6
132 6
133 6
134 6
135 6
137 6
142 6
144 6
146 6
148 6
150 6
155 6
160 6
161 6
165 6
166 6
169 6
170 6
180 6
182 6
199 6
205 6
209 6
10 7
13 7
30 7
32 7
42 7
43 7
46 7
47 7
51 7
52 7
57 7
62 7
64 7
66 7
68 7
70 7
75 7
77 7
78 7
79 7
80 7
84 7
87 7
92 7
94 7
95 7
105 7
108 7
118 7
119 7
121 7
126 7
129 7
133 7
134 7
135 7
136 7
138 7
143 7
145 7
147 7
149 7
151 7
156 7
161 7
162 7
166 7
167 7
170 7
171 7
181 7
183 7
208 7
11 8
14 8
31 8
33 8
43 8
44 8
47 8
48 8
52 8
53 8
58 8
63 8
65 8
67 8
69 8
71 8
76 8
78 8
79 8
80 8
81 8
85 8
88 8
93 8
95 8
96 8
106 8
109 8
119 8
120 8
122 8
127 8
130 8
134 8
135 8
136 8
137 8
139 8
144 8
146 8
148 8
150 8
152 8
157 8
162 8
163 8
167 8
168 8
171 8
172 8
182 8
184 8
200 8
204 8
12 9
15 9
32 9
34 9
44 9
45 9
48 9
49 9
53 9
54 9
59 9
64 9
66 9
68 9
70 9
72 9
77 9
79 9
80 9
81 9
82 9
86 9
89 9
94 9
96 9
97 9
107 9
110 9
120 9
121 9
123 9
128 9
131 9
135 9
136 9
137 9
138 9
140 9
145 9
147 9
149 9
151 9
153 9
158 9
163 9
164 9
168 9
169 9
172 9
173 9
183 9
185 9
200 9
201 9
13 10
16 10
33 10
35 10
45 10
46 10
49 10
50 10
54 10
55 10
60 10
65 10
67 10
69 10
71 10
73 10
78 10
80 10
81 10
82 10
83 10
87 10
90 10
95 10
97 10
98 10
108 10
111 10
121 10
122 10
124 10
129 10
132 10
136 10
137 10
138 10
139 10
141 10
146 10
148 10
150 10
152 10
154 10
159 10
164 10
165 10
169 10
170 10
173 10
174 10
184 10
186 10
201 10
206 10
14 11
17 11
34 11
36 11
46 11
47 11
50 11
51 11
55 11
56 11
61 11
66 11
68 11
70 11
72 11
74 11
79 11
81 11
82 11
83 11
84 11
88 11
91 11
96 11
98 11
99 11
109 11
112 11
122 11
123 11
125 11
130 11
133 11
137 11
138 11
139 11
140 11
142 11
147 11
149 11
151 11
153 11
155 11
160 11
165 11
166 11
170 11
171 11
174 11
175 11
185 11
187 11
206 11
15 12
18 12
35 12
37 12
47 12
48 12
51 12
52 12
56 12
57 12
62 12
67 12
69 12
71 12
73 12
75 12
80 12
82 12
83 12
84 12
85 12
89 12
92 12
97 12
99 12
100 12
110 12
113 12
123 12
124 12
126 12
131 12
134 12
138 12
139 12
140 12
141 12
143 12
148 12
150 12
152 12
154 12
156 12
161 12
166 12
167 12
171 12
172 12
175 12
176 12
186 12
188 12
204 12
16 13
19 13
36 13
38 13
48 13
49 13
52 13
53 13
57 13
58 13
63 13
68 13
70 13
72 13
74 13
76 13
81 13
83 13
84 13
85 13
86 13
90 13
93 13
98 13
100 13
101 13
111 13
114 13
124 13
125 13
127 13
132 13
135 13
139 13
140 13
141 13
142 13
144 13
149 13
151 13
153 13
155 13
157 13
162 13
167 13
168 13
172 13
173 13
176 13
177 13
187 13
189 13
201 13
17 14
20 14
37 14
39 14
49 14
50 14
53 14
54 14
58 14
59 14
64 14
69 14
71 14
73 14
75 14
77 14
82 14
84 14
85 14
86 14
87 14
91 14
94 14
99 14
101 14
102 14
112 14
115 14
125 14
126 14
128 14
133 14
136 14
140 14
141 14
142 14
143 14
145 14
150 14
152 14
154 14
156 14
158 14
163 14
168 14
169 14
173 14
174 14
177 14
178 14
188 14
190 14
200 14
18 15
21 15
38 15
40 15
50 15
51 15
54 15
55 15
59 15
60 15
65 15
70 15
72 15
74 15
76 15
78 15
83 15
85 15
86 15
87 15
88 15
92 15
95 15
100 15
102 15
103 15
113 15
116 15
126 15
127 15
129 15
134 15
137 15
141 15
142 15
143 15
144 15
146 15
151 15
153 15
155 15
157 15
159 15
164 15
169 15
170 15
174 15
175 15
178 15
179 15
189 15
191 15
202 15
205 15
206 15
19 16
22 16
39 16
41 16
51 16
52 16
55 16
56 16
60 16
61 16
66 16
71 16
73 16
75 16
77 16
79 16
84 16
86 16
87 16
88 16
89 16
93 16
96 16
101 16
103 16
104 16
114 16
117 16
127 16
128 16
130 16
135 16
138 16
142 16
143 16
144 16
145 16
147 16
152 16
154 16
156 16
158 16
160 16
165 16
170 16
171 16
175 16
176 16
179 16
180 16
190 16
192 16
209 16
20 17
23 17
40 17
42 17
52 17
53 17
56 17
57 17
61 17
62 17
67 17
72 17
74 17
76 17
78 17
80 17
85 17
87 17
88 17
89 17
90 17
94 17
97 17
102 17
104 17
105 17
115 17
118 17
128 17
129 17
131 17
136 17
139 17
143 17
144 17
145 17
146 17
148 17
153 17
155 17
157 17
159 17
161 17
166 17
171 17
172 17
176 17
177 17
180 17
181 17
191 17
193 17
203 17
21 18
24 18
41 18
43 18
53 18
54 18
57 18
58 18
62 18
63 18
68 18
73 18
75 18
77 18
79 18
81 18
86 18
88 18
89 18
90 18
91 18
95 18
98 18
103 18
105 18
106 18
116 18
119 18
129 18
130 18
132 18
137 18
140 18
144 18
145 18
146 18
147 18
149 18
154 18
156 18
158 18
160 18
162 18
167 18
172 18
173 18
177 18
178 18
181 18
182 18
192 18
194 18
201 18
202 18
22 19
25 19
42 19
44 19
54 19
55 19
58 19
59 19
63 19
64 19
69 19
74 19
76 19
78 19
80 19
82 19
87 19
89 19
90 19
91 19
92 19
96 19
99 19
104 19
106 19
107 19
117 19
120 19
130 19
131 19
133 19
138 19
141 19
145 19
146 19
147 19
148 19
150 19
155 19
157 19
159 19
161 19
163 19
168 19
173 19
174 19
178 19
179 19
182 19
183 19
193 19
195 19
200 19
201 19
203 19
23 20
26 20
43 20
45 20
55 20
56 20
59 20
60 20
64 20
65 20
70 20
75 20
77 20
79 20
81 20
83 20
88 20
90 20
91 20
92 20
93 20
97 20
100 20
105 20
107 20
108 20
118 20
121 20
131 20
132 20
134 20
139 20
142 20
146 20
147 20
148 20
149 20
151 20
156 20
158 20
160 20
162 20
164 20
169 20
174 20
175 20
179 20
180 20
183 20
184 20
194 20
196 20
203 20
209 20
24 21
27 21
44 21
46 21
56 21
57 21
60 21
61 21
65 21
66 21
71 21
76 21
78 21
80 21
82 21
84 21
89 21
91 21
92 21
93 21
94 21
98 21
101 21
106 21
108 21
109 21
119 21
122 21
132 21
133 21
135 21
140 21
143 21
147 21
148 21
149 21
150 21
152 21
157 21
159 21
161 21
163 21
165 21
170 21
175 21
176 21
180 21
181 21
184 21
185 21
195 21
197 21
200 21
205 21
25 22
28 22
45 22
47 22
57 22
58 22
61 22
62 22
66 22
67 22
72 22
77 22
79 22
81 22
83 22
85 22
90 22
92 22
93 22
94 22
95 22
99 22
102 22
107 22
109 22
110 22
120 22
123 22
133 22
134 22
136 22
141 22
144 22
148 22
149 22
150 22
151 22
153 22
158 22
160 22
162 22
164 22
166 22
171 22
176 22
177 22
181 22
182 22
185 22
186 22
196 22
198 22
203 22
208 22
26 23
29 23
46 23
48 23
58 23
59 23
62 23
63 23
67 23
68 23
73 23
78 23
80 23
82 23
84 23
86 23
91 23
93 23
94 23
95 23
96 23
100 23
103 23
108 23
110 23
111 23
121 23
124 23
134 23
135 23
137 23
142 23
145 23
149 23
150 23
151 23
152 23
154 23
159 23
161 23
163 23
165 23
167 23
172 23
177 23
178 23
182 23
183 23
186 23
187 23
197 23
199 23
200 23
204 23
27 24
30 24
47 24
49 24
59 24
60 24
63 24
64 24
68 24
69 24
74 24
79 24
81 24
83 24
85 24
87 24
92 24
94 24
95 24
96 24
97 24
101 24
104 24
109 24
111 24
112 24
122 24
125 24
135 24
136 24
138 24
143 24
146 24
150 24
151 24
152 24
153 24
155 24
160 24
162 24
164 24
166 24
168 24
173 24
178 24
179 24
183 24
184 24
187 24
188 24
198 24
201 24
28 25
31 25
48 25
50 25
60 25
61 25
64 25
65 25
69 25
70 25
75 25
80 25
82 25
84 25
86 25
88 25
93 25
95 25
96 25
97 25
98 25
102 25
105 25
110 25
112 25
113 25
123 25
126 25
136 25
137 25
139 25
144 25
147 25
151 25
152 25
153 25
154 25
156 25
161 25
163 25
165 25
167 25
169 25
174 25
179 25
180 25
184 25
185 25
188 25
189 25
199 25
200 25
204 25
205 25
29 26
32 26
49 26
51 26
61 26
62 26
65 26
66 26
70 26
71 26
76 26
81 26
83 26
85 26
87 26
89 26
94 26
96 26
97 26
98 26
99 26
103 26
106 26
111 26
113 26
114 26
124 26
127 26
137 26
138 26
140 26
145 26
148 26
152 26
153 26
154 26
155 26
157 26
162 26
164 26
166 26
168 26
170 26
175 26
180 26
181 26
185 26
186 26
189 26
190 26
205 26
30 27
33 27
50 27
52 27
62 27
63 27
66 27
67 27
71 27
72 27
77 27
82 27
84 27
86 27
88 27
90 27
95 27
97 27
98 27
99 27
100 27
104 27
107 27
112 27
114 27
115 27
125 27
128 27
138 27
139 27
141 27
146 27
149 27
153 27
154 27
155 27
156 27
158 27
163 27
165 27
167 27
169 27
171 27
176 27
181 27
182 27
186 27
187 27
190 27
191 27
200 27
203 27
31 28
34 28
51 28
53 28
63 28
64 28
67 28
68 28
72 28
73 28
78 28
83 28
85 28
87 28
89 28
91 28
96 28
98 28
99 28
100 28
101 28
105 28
108 28
113 28
115 28
116 28
126 28
129 28
139 28
140 28
142 28
147 28
150 28
154 28
155 28
156 28
157 28
159 28
164 28
166 28
168 28
170 28
172 28
177 28
182 28
183 28
187 28
188 28
191 28
192 28
202 28
207 28
32 29
35 29
52 29
54 29
64 29
65 29
68 29
69 29
73 29
74 29
79 29
84 29
86 29
88 29
90 29
92 29
97 29
99 29
100 29
101 29
102 29
106 29
109 29
114 29
116 29
117 29
127 29
130 29
140 29
141 29
143 29
148 29
151 29
155 29
156 29
157 29
158 29
160 29
165 29
167 29
169 29
171 29
173 29
178 29
183 29
184 29
188 29
189 29
192 29
193 29
201 29
203 29
207 29
33 30
36 30
53 30
55 30
65 30
66 30
69 30
70 30
74 30
75 30
80 30
85 30
87 30
89 30
91 30
93 30
98 30
100 30
101 30
102 30
103 30
107 30
110 30
115 30
117 30
118 30
128 30
131 30
141 30
142 30
144 30
149 30
152 30
156 30
157 30
158 30
159 30
161 30
166 30
168 30
170 30
172 30
174 30
179 30
184 30
185 30
189 30
190 30
193 30
194 30
205 30
209 30
34 31
37 31
54 31
56 31
66 31
67 31
70 31
71 31
75 31
76 31
81 31
86 31
88 31
90 31
92 31
94 31
99 31
101 31
102 31
103 31
104 31
108 31
111 31
116 31
118 31
119 31
129 31
132 31
142 31
143 31
145 31
150 31
153 31
157 31
158 31
159 31
160 31
162 31
167 31
169 31
171 31
173 31
175 31
180 31
185 31
186 31
190 31
191 31
194 31
195 31
201 31
202 31
35 32
38 32
55 32
57 32
67 32
68 32
71 32
72 32
76 32
77 32
82 32
87 32
89 32
91 32
93 32
95 32
100 32
102 32
103 32
104 32
105 32
109 32
112 32
117 32
119 32
120 32
130 32
133 32
143 32
144 32
146 32
151 32
154 32
158 32
159 32
160 32
161 32
163 32
168 32
170 32
172 32
174 32
176 32
181 32
186 32
187 32
191 32
192 32
195 32
196 32
200 32
36 33
39 33
56 33
58 33
68 33
69 33
72 33
73 33
77 33
78 33
83 33
88 33
90 33
92 33
94 33
96 33
101 33
103 33
104 33
105 33
106 33
110 33
113 33
118 33
120 33
121 33
131 33
134 33
144 33
145 33
147 33
152 33
155 33
159 33
160 33
161 33
162 33
164 33
169 33
171 33
173 33
175 33
177 33
182 33
187 33
188 33
192 33
193 33
196 33
197 33
201 33
203 33
37 34
40 34
57 34
59 34
69 34
70 34
73 34
74 34
78 34
79 34
84 34
89 34
91 34
93 34
95 34
97 34
102 34
104 34
105 34
106 34
107 34
111 34
114 34
119 34
121 34
122 34
132 34
135 34
145 34
146 34
148 34
153 34
156 34
160 34
161 34
162 34
163 34
165 34
170 34
172 34
174 34
176 34
178 34
183 34
188 34
189 34
193 34
194 34
197 34
198 34
200 34
205 34
38 35
41 35
58 35
60 35
70 35
71 35
74 35
75 35
79 35
80 35
85 35
90 35
92 35
94 35
96 35
98 35
103 35
105 35
106 35
107 35
108 35
112 35
115 35
120 35
122 35
123 35
133 35
136 35
146 35
147 35
149 35
154 35
157 35
161 35
162 35
163 35
164 35
166 35
171 35
173 35
175 35
177 35
179 35
184 35
189 35
190 35
194 35
195 35
198 35
199 35
200 35
203 35
39 36
42 36
59 36
61 36
71 36
72 36
75 36
76 36
80 36
81 36
86 36
91 36
93 36
95 36
97 36
99 36
104 36
106 36
107 36
108 36
109 36
113 36
116 36
121 36
123 36
124 36
134 36
137 36
147 36
148 36
150 36
155 36
158 36
162 36
163 36
164 36
165 36
167 36
172 36
174 36
176 36
178 36
180 36
185 36
190 36
191 36
195 36
196 36
199 36
200 36
40 37
43 37
60 37
62 37
72 37
73 37
76 37
77 37
81 37
82 37
87 37
92 37
94 37
96 37
98 37
100 37
105 37
107 37
108 37
109 37
110 37
114 37
117 37
122 37
124 37
125 37
135 37
138 37
148 37
149 37
151 37
156 37
159 37
163 37
164 37
165 37
166 37
168 37
173 37
175 37
177 37
179 37
181 37
186 37
191 37
192 37
196 37
197 37
200 37
206 37
41 38
44 38
61 38
63 38
73 38
74 38
77 38
78 38
82 38
83 38
88 38
93 38
95 38
97 38
99 38
101 38
106 38
108 38
109 38
110 38
111 38
115 38
118 38
123 38
125 38
126 38
136 38
139 38
149 38
150 38
152 38
157 38
160 38
164 38
165 38
166 38
167 38
169 38
174 38
176 38
178 38
180 38
182 38
187 38
192 38
193 38
197 38
198 38
207 38
42 39
45 39
62 39
64 39
74 39
75 39
78 39
79 39
83 39
84 39
89 39
94 39
96 39
98 39
100 39
102 39
107 39
109 39
110 39
111 39
112 39
116 39
119 39
124 39
126 39
127 39
137 39
140 39
150 39
151 39
153 39
158 39
161 39
165 39
166 39
167 39
168 39
170 39
175 39
177 39
179 39
181 39
183 39
188 39
193 39
194 39
198 39
199 39
202 39
209 39
43 40
46 40
63 40
65 40
75 40
76 40
79 40
80 40
84 40
85 40
90 40
95 40
97 40
99 40
101 40
103 40
108 40
110 40
111 40
112 40
113 40
117 40
120 40
125 40
127 40
128 40
138 40
141 40
151 40
152 40
154 40
159 40
162 40
166 40
167 40
168 40
169 40
171 40
176 40
178 40
180 40
182 40
184 40
189 40
194 40
195 40
199 40
203 40
205 40
44 41
47 41
64 41
66 41
76 41
77 41
80 41
81 41
85 41
86 41
91 41
96 41
98 41
100 41
102 41
104 41
109 41
111 41
112 41
113 41
114 41
118 41
121 41
126 41
128 41
129 41
139 41
142 41
152 41
153 41
155 41
160 41
163 41
167 41
168 41
169 41
170 41
172 41
177 41
179 41
181 41
183 41
185 41
190 41
195 41
196 41
200 41
206 41
45 42
48 42
65 42
67 42
77 42
78 42
81 42
82 42
86 42
87 42
92 42
97 42
99 42
101 42
103 42
105 42
110 42
112 42
113 42
114 42
115 42
119 42
122 42
127 42
129 42
130 42
140 42
143 42
153 42
154 42
156 42
161 42
164 42
168 42
169 42
170 42
171 42
173 42
178 42
180 42
182 42
184 42
186 42
191 42
196 42
197 42
201 42
205 42
46 43
49 43
66 43
68 43
78 43
79 43
82 43
83 43
87 43
88 43
93 43
98 43
100 43
102 43
104 43
106 43
111 43
113 43
114 43
115 43
116 43
120 43
123 43
128 43
130 43
131 43
141 43
144 43
154 43
155 43
157 43
162 43
165 43
169 43
170 43
171 43
172 43
174 43
179 43
181 43
183 43
185 43
187 43
192 43
197 43
198 43
202 43
47 44
50 44
67 44
69 44
79 44
80 44
83 44
84 44
88 44
89 44
94 44
99 44
101 44
103 44
105 44
107 44
112 44
114 44
115 44
116 44
117 44
121 44
124 44
129 44
131 44
132 44
142 44
145 44
155 44
156 44
158 44
163 44
166 44
170 44
171 44
172 44
173 44
175 44
180 44
182 44
184 44
186 44
188 44
193 44
198 44
199 44
201 44
202 44
48 45
51 45
68 45
70 45
80 45
81 45
84 45
85 45
89 45
90 45
95 45
100 45
102 45
104 45
106 45
108 45
113 45
115 45
116 45
117 45
118 45
122 45
125 45
130 45
132 45
133 45
143 45
146 45
156 45
157 45
159 45
164 45
167 45
171 45
172 45
173 45
174 45
176 45
181 45
183 45
185 45
187 45
189 45
194 45
199 45
202 45
203 45
49 46
52 46
69 46
71 46
81 46
82 46
85 46
86 46
90 46
91 46
96 46
101 46
103 46
105 46
107 46
109 46
114 46
116 46
117 46
118 46
119 46
123 46
126 46
131 46
133 46
134 46
144 46
147 46
157 46
158 46
160 46
165 46
168 46
172 46
173 46
174 46
175 46
177 46
182 46
184 46
186 46
188 46
190 46
195 46
201 46
202 46
50 47
53 47
70 47
72 47
82 47
83 47
86 47
87 47
91 47
92 47
97 47
102 47
104 47
106 47
108 47
110 47
115 47
117 47
118 47
119 47
120 47
124 47
127 47
132 47
134 47
135 47
145 47
148 47
158 47
159 47
161 47
166 47
169 47
173 47
174 47
175 47
176 47
178 47
183 47
185 47
187 47
189 47
191 47
196 47
201 47
51 48
54 48
71 48
73 48
83 48
84 48
87 48
88 48
92 48
93 48
98 48
103 48
105 48
107 48
109 48
111 48
116 48
118 48
119 48
120 48
121 48
125 48
128 48
133 48
135 48
136 48
146 48
149 48
159 48
160 48
162 48
167 48
170 48
174 48
175 48
176 48
177 48
179 48
184 48
186 48
188 48
190 48
192 48
197 48
202 48
207 48
208 48
52 49
55 49
72 49
74 49
84 49
85 49
88 49
89 49
93 49
94 49
99 49
104 49
106 49
108 49
110 49
112 49
117 49
119 49
120 49
121 49
122 49
126 49
129 49
134 49
136 49
137 49
147 49
150 49
160 49
161 49
163 49
168 49
171 49
175 49
176 49
177 49
178 49
180 49
185 49
187 49
189 49
191 49
193 49
198 49
200 49
206 49
53 50
56 50
73 50
75 50
85 50
86 50
89 50
90 50
94 50
95 50
100 50
105 50
107 50
109 50
111 50
113 50
118 50
120 50
121 50
122 50
123 50
127 50
130 50
135 50
137 50
138 50
148 50
151 50
161 50
162 50
164 50
169 50
172 50
176 50
177 50
178 50
179 50
181 50
186 50
188 50
190 50
192 50
194 50
199 50
203 50
207 50
54 51
57 51
74 51
76 51
86 51
87 51
90 51
91 51
95 51
96 51
101 51
106 51
108 51
110 51
112 51
114 51
119 51
121 51
122 51
123 51
124 51
128 51
131 51
136 51
138 51
139 51
149 51
152 51
162 51
163 51
165 51
170 51
173 51
177 51
178 51
179 51
180 51
182 51
187 51
189 51
191 51
193 51
195 51
200 51
201 51
204 51
206 51
55 52
58 52
75 52
77 52
87 52
88 52
91 52
92 52
96 52
97 52
102 52
107 52
109 52
111 52
113 52
115 52
120 52
122 52
123 52
124 52
125 52
129 52
132 52
137 52
139 52
140 52
150 52
153 52
163 52
164 52
166 52
171 52
174 52
178 52
179 52
180 52
181 52
183 52
188 52
190 52
192 52
194 52
196 52
200 52
56 53
59 53
76 53
78 53
88 53
89 53
92 53
93 53
97 53
98 53
103 53
108 53
110 53
112 53
114 53
116 53
121 53
123 53
124 53
125 53
126 53
130 53
133 53
138 53
140 53
141 53
151 53
154 53
164 53
165 53
167 53
172 53
175 53
179 53
180 53
181 53
182 53
184 53
189 53
191 53
193 53
195 53
197 53
202 53
57 54
60 54
77 54
79 54
89 54
90 54
93 54
94 54
98 54
99 54
104 54
109 54
111 54
113 54
115 54
117 54
122 54
124 54
125 54
126 54
127 54
131 54
134 54
139 54
141 54
142 54
152 54
155 54
165 54
166 54
168 54
173 54
176 54
180 54
181 54
182 54
183 54
185 54
190 54
192 54
194 54
196 54
198 54
201 54
208 54
209 54
58 55
61 55
78 55
80 55
90 55
91 55
94 55
95 55
99 55
100 55
105 55
110 55
112 55
114 55
116 55
118 55
123 55
125 55
126 55
127 55
128 55
132 55
135 55
140 55
142 55
143 55
153 55
156 55
166 55
167 55
169 55
174 55
177 55
181 55
182 55
183 55
184 55
186 55
191 55
193 55
195 55
197 55
199 55
202 55
59 56
62 56
79 56
81 56
91 56
92 56
95 56
96 56
100 56
101 56
106 56
111 56
113 56
115 56
117 56
119 56
124 56
126 56
127 56
128 56
129 56
133 56
136 56
141 56
143 56
144 56
154 56
157 56
167 56
168 56
170 56
175 56
178 56
182 56
183 56
184 56
185 56
187 56
192 56
194 56
196 56
198 56
60 57
63 57
80 57
82 57
92 57
93 57
96 57
97 57
101 57
102 57
107 57
112 57
114 57
116 57
118 57
120 57
125 57
127 57
128 57
129 57
130 57
134 57
137 57
142 57
144 57
145 57
155 57
158 57
168 57
169 57
171 57
176 57
179 57
183 57
184 57
185 57
186 57
188 57
193 57
195 57
197 57
199 57
202 57
61 58
64 58
81 58
83 58
93 58
94 58
97 58
98 58
102 58
103 58
108 58
113 58
115 58
117 58
119 58
121 58
126 58
128 58
129 58
130 58
131 58
135 58
138 58
143 58
145 58
146 58
156 58
159 58
169 58
170 58
172 58
177 58
180 58
184 58
185 58
186 58
187 58
189 58
194 58
196 58
198 58
206 58
62 59
65 59
82 59
84 59
94 59
95 59
98 59
99 59
103 59
104 59
109 59
114 59
116 59
118 59
120 59
122 59
127 59
129 59
130 59
131 59
132 59
136 59
139 59
144 59
146 59
147 59
157 59
160 59
170 59
171 59
173 59
178 59
181 59
185 59
186 59
187 59
188 59
190 59
195 59
197 59
199 59
201 59
202 59
63 60
66 60
83 60
85 60
95 60
96 60
99 60
100 60
104 60
105 60
110 60
115 60
117 60
119 60
121 60
123 60
128 60
130 60
131 60
132 60
133 60
137 60
140 60
145 60
147 60
148 60
158 60
161 60
171 60
172 60
174 60
179 60
182 60
186 60
187 60
188 60
189 60
191 60
196 60
198 60
209 60
64 61
67 61
84 61
86 61
96 61
97 61
100 61
101 61
105 61
106 61
111 61
116 61
118 61
120 61
122 61
124 61
129 61
131 61
132 61
133 61
134 61
138 61
141 61
146 61
148 61
149 61
159 61
162 61
172 61
173 61
175 61
180 61
183 61
187 61
188 61
189 61
190 61
192 61
197 61
199 61
201 61
202 61
65 62
68 62
85 62
87 62
97 62
98 62
101 62
102 62
106 62
107 62
112 62
117 62
119 62
121 62
123 62
125 62
130 62
132 62
133 62
134 62
135 62
139 62
142 62
147 62
149 62
150 62
160 62
163 62
173 62
174 62
176 62
181 62
184 62
188 62
189 62
190 62
191 62
193 62
198 62
200 62
208 62
66 63
69 63
86 63
88 63
98 63
99 63
102 63
103 63
107 63
108 63
113 63
118 63
120 63
122 63
124 63
126 63
131 63
133 63
134 63
135 63
136 63
140 63
143 63
148 63
150 63
151 63
161 63
164 63
174 63
175 63
177 63
182 63
185 63
189 63
190 63
191 63
192 63
194 63
199 63
207 63
67 64
70 64
87 64
89 64
99 64
100 64
103 64
104 64
108 64
109 64
114 64
119 64
121 64
123 64
125 64
127 64
132 64
134 64
135 64
136 64
137 64
141 64
144 64
149 64
151 64
152 64
162 64
165 64
175 64
176 64
178 64
183 64
186 64
190 64
191 64
192 64
193 64
195 64
207 64
68 65
71 65
88 65
90 65
100 65
101 65
104 65
105 65
109 65
110 65
115 65
120 65
122 65
124 65
126 65
128 65
133 65
135 65
136 65
137 65
138 65
142 65
145 65
150 65
152 65
153 65
163 65
166 65
176 65
177 65
179 65
184 65
187 65
191 65
192 65
193 65
194 65
196 65
200 65
203 65
69 66
72 66
89 66
91 66
101 66
102 66
105 66
106 66
110 66
111 66
116 66
121 66
123 66
125 66
127 66
129 66
134 66
136 66
137 66
138 66
139 66
143 66
146 66
151 66
153 66
154 66
164 66
167 66
177 66
178 66
180 66
185 66
188 66
192 66
193 66
194 66
195 66
197 66
202 66
206 66
70 67
73 67
90 67
92 67
102 67
103 67
106 67
107 67
111 67
112 67
117 67
122 67
124 67
126 67
128 67
130 67
135 67
137 67
138 67
139 67
140 67
144 67
147 67
152 67
154 67
155 67
165 67
168 67
178 67
179 67
181 67
186 67
189 67
193 67
194 67
195 67
196 67
198 67
203 67
71 68
74 68
91 68
93 68
103 68
104 68
107 68
108 68
112 68
113 68
118 68
123 68
125 68
127 68
129 68
131 68
136 68
138 68
139 68
140 68
141 68
145 68
148 68
153 68
155 68
156 68
166 68
169 68
179 68
180 68
182 68
187 68
190 68
194 68
195 68
196 68
197 68
199 68
205 68
209 68
72 69
75 69
92 69
94 69
104 69
105 69
108 69
109 69
113 69
114 69
119 69
124 69
126 69
128 69
130 69
132 69
137 69
139 69
140 69
141 69
142 69
146 69
149 69
154 69
156 69
157 69
167 69
170 69
180 69
181 69
183 69
188 69
191 69
195 69
196 69
197 69
198 69
207 69
73 70
76 70
93 70
95 70
105 70
106 70
109 70
110 70
114 70
115 70
120 70
125 70
127 70
129 70
131 70
133 70
138 70
140 70
141 70
142 70
143 70
147 70
150 70
155 70
157 70
158 70
168 70
171 70
181 70
182 70
184 70
189 70
192 70
196 70
197 70
198 70
199 70
74 71
77 71
94 71
96 71
106 71
107 71
110 71
111 71
115 71
116 71
121 71
126 71
128 71
130 71
132 71
134 71
139 71
141 71
142 71
143 71
144 71
148 71
151 71
156 71
158 71
159 71
169 71
172 71
182 71
183 71
185 71
190 71
193 71
197 71
198 71
199 71
202 71
209 71
75 72
78 72
95 72
97 72
107 72
108 72
111 72
112 72
116 72
117 72
122 72
127 72
129 72
131 72
133 72
135 72
140 72
142 72
143 72
144 72
145 72
149 72
152 72
157 72
159 72
160 72
170 72
173 72
183 72
184 72
186 72
191 72
194 72
198 72
199 72
201 72
202 72
76 73
79 73
96 73
98 73
108 73
109 73
112 73
113 73
117 73
118 73
123 73
128 73
130 73
132 73
134 73
136 73
141 73
143 73
144 73
145 73
146 73
150 73
153 73
158 73
160 73
161 73
171 73
174 73
184 73
185 73
187 73
192 73
195 73
199 73
204 73
77 74
80 74
97 74
99 74
109 74
110 74
113 74
114 74
118 74
119 74
124 74
129 74
131 74
133 74
135 74
137 74
142 74
144 74
145 74
146 74
147 74
151 74
154 74
159 74
161 74
162 74
172 74
175 74
185 74
186 74
188 74
193 74
196 74
207 74
78 75
81 75
98 75
100 75
110 75
111 75
114 75
115 75
119 75
120 75
125 75
130 75
132 75
134 75
136 75
138 75
143 75
145 75
146 75
147 75
148 75
152 75
155 75
160 75
162 75
163 75
173 75
176 75
186 75
187 75
189 75
194 75
197 75
200 75
201 75
206 75
79 76
82 76
99 76
101 76
111 76
112 76
115 76
116 76
120 76
121 76
126 76
131 76
133 76
135 76
137 76
139 76
144 76
146 76
147 76
148 76
149 76
153 76
156 76
161 76
163 76
164 76
174 76
177 76
187 76
188 76
190 76
195 76
198 76
200 76
202 76
80 77
83 77
100 77
102 77
112 77
113 77
116 77
117 77
121 77
122 77
127 77
132 77
134 77
136 77
138 77
140 77
145 77
147 77
148 77
149 77
150 77
154 77
157 77
162 77
164 77
165 77
175 77
178 77
188 77
189 77
191 77
196 77
199 77
202 77
206 77
81 78
84 78
101 78
103 78
113 78
114 78
117 78
118 78
122 78
123 78
128 78
133 78
135 78
137 78
139 78
141 78
146 78
148 78
149 78
150 78
151 78
155 78
158 78
163 78
165 78
166 78
176 78
179 78
189 78
190 78
192 78
197 78
200 78
208 78
82 79
85 79
102 79
104 79
114 79
115 79
118 79
119 79
123 79
124 79
129 79
134 79
136 79
138 79
140 79
142 79
147 79
149 79
150 79
151 79
152 79
156 79
159 79
164 79
166 79
167 79
177 79
180 79
190 79
191 79
193 79
198 79
207 79
208 79
83 80
86 80
103 80
105 80
115 80
116 80
119 80
120 80
124 80
125 80
130 80
135 80
137 80
139 80
141 80
143 80
148 80
150 80
151 80
152 80
153 80
157 80
160 80
165 80
167 80
168 80
178 80
181 80
191 80
192 80
194 80
199 80
202 80
207 80
84 81
87 81
104 81
106 81
116 81
117 81
120 81
121 81
125 81
126 81
131 81
136 81
138 81
140 81
142 81
144 81
149 81
151 81
152 81
153 81
154 81
158 81
161 81
166 81
168 81
169 81
179 81
182 81
192 81
193 81
195 81
202 81
207 81
209 81
85 82
88 82
105 82
107 82
117 82
118 82
121 82
122 82
126 82
127 82
132 82
137 82
139 82
141 82
143 82
145 82
150 82
152 82
153 82
154 82
155 82
159 82
162 82
167 82
169 82
170 82
180 82
183 82
193 82
194 82
196 82
209 82
86 83
89 83
106 83
108 83
118 83
119 83
122 83
123 83
127 83
128 83
133 83
138 83
140 83
142 83
144 83
146 83
151 83
153 83
154 83
155 83
156 83
160 83
163 83
168 83
170 83
171 83
181 83
184 83
194 83
195 83
197 83
200 83
204 83
87 84
90 84
107 84
109 84
119 84
120 84
123 84
124 84
128 84
129 84
134 84
139 84
141 84
143 84
145 84
147 84
152 84
154 84
155 84
156 84
157 84
161 84
164 84
169 84
171 84
172 84
182 84
185 84
195 84
196 84
198 84
203 84
204 84
88 85
91 85
108 85
110 85
120 85
121 85
124 85
125 85
129 85
130 85
135 85
140 85
142 85
144 85
146 85
148 85
153 85
155 85
156 85
157 85
158 85
162 85
165 85
170 85
172 85
173 85
183 85
186 85
196 85
197 85
199 85
201 85
206 85
89 86
92 86
109 86
111 86
121 86
122 86
125 86
126 86
130 86
131 86
136 86
141 86
143 86
145 86
147 86
149 86
154 86
156 86
157 86
158 86
159 86
163 86
166 86
171 86
173 86
174 86
184 86
187 86
197 86
198 86
200 86
208 86
209 86
90 87
93 87
110 87
112 87
122 87
123 87
126 87
127 87
131 87
132 87
137 87
142 87
144 87
146 87
148 87
150 87
155 87
157 87
158 87
159 87
160 87
164 87
167 87
172 87
174 87
175 87
185 87
188 87
198 87
199 87
203 87
209 87
91 88
94 88
111 88
113 88
123 88
124 88
127 88
128 88
132 88
133 88
138 88
143 88
145 88
147 88
149 88
151 88
156 88
158 88
159 88
160 88
161 88
165 88
168 88
173 88
175 88
176 88
186 88
189 88
199 88
201 88
208 88
209 88
92 89
95 89
112 89
114 89
124 89
125 89
128 89
129 89
133 89
134 89
139 89
144 89
146 89
148 89
150 89
152 89
157 89
159 89
160 89
161 89
162 89
166 89
169 89
174 89
176 89
177 89
187 89
190 89
206 89
93 90
96 90
113 90
115 90
125 90
126 90
129 90
130 90
134 90
135 90
140 90
145 90
147 90
149 90
151 90
153 90
158 90
160 90
161 90
162 90
163 90
167 90
170 90
175 90
177 90
178 90
188 90
191 90
200 90
205 90
207 90
94 91
97 91
114 91
116 91
126 91
127 91
130 91
131 91
135 91
136 91
141 91
146 91
148 91
150 91
152 91
154 91
159 91
161 91
162 91
163 91
164 91
168 91
171 91
176 91
178 91
179 91
189 91
192 91
200 91
202 91
208 91
95 92
98 92
115 92
117 92
127 92
128 92
131 92
132 92
136 92
137 92
142 92
147 92
149 92
151 92
153 92
155 92
160 92
162 92
163 92
164 92
165 92
169 92
172 92
177 92
179 92
180 92
190 92
193 92
200 92
204 92
96 93
99 93
116 93
118 93
128 93
129 93
132 93
133 93
137 93
138 93
143 93
148 93
150 93
152 93
154 93
156 93
161 93
163 93
164 93
165 93
166 93
170 93
173 93
178 93
180 93
181 93
191 93
194 93
200 93
201 93
97 94
100 94
117 94
119 94
129 94
130 94
133 94
134 94
138 94
139 94
144 94
149 94
151 94
153 94
155 94
157 94
162 94
164 94
165 94
166 94
167 94
171 94
174 94
179 94
181 94
182 94
192 94
195 94
206 94
98 95
101 95
118 95
120 95
130 95
131 95
134 95
135 95
139 95
140 95
145 95
150 95
152 95
154 95
156 95
158 95
163 95
165 95
166 95
167 95
168 95
172 95
175 95
180 95
182 95
183 95
193 95
196 95
200 95
208 95
209 95
99 96
102 96
119 96
121 96
131 96
132 96
135 96
136 96
140 96
141 96
146 96
151 96
153 96
155 96
157 96
159 96
164 96
166 96
167 96
168 96
169 96
173 96
176 96
181 96
183 96
184 96
194 96
197 96
201 96
208 96
100 97
103 97
120 97
122 97
132 97
133 97
136 97
137 97
141 97
142 97
147 97
152 97
154 97
156 97
158 97
160 97
165 97
167 97
168 97
169 97
170 97
174 97
177 97
182 97
184 97
185 97
195 97
198 97
208 97
209 97
101 98
104 98
121 98
123 98
133 98
134 98
137 98
138 98
142 98
143 98
148 98
153 98
155 98
157 98
159 98
161 98
166 98
168 98
169 98
170 98
171 98
175 98
178 98
183 98
185 98
186 98
196 98
199 98
204 98
102 99
105 99
122 99
124 99
134 99
135 99
138 99
139 99
143 99
144 99
149 99
154 99
156 99
158 99
160 99
162 99
167 99
169 99
170 99
171 99
172 99
176 99
179 99
184 99
186 99
187 99
197 99
103 100
106 100
123 100
125 100
135 100
136 100
139 100
140 100
144 100
145 100
150 100
155 100
157 100
159 100
161 100
163 100
168 100
170 100
171 100
172 100
173 100
177 100
180 100
185 100
187 100
188 100
198 100
200 100
205 100
104 101
107 101
124 101
126 101
136 101
137 101
140 101
141 101
145 101
146 101
151 101
156 101
158 101
160 101
162 101
164 101
169 101
171 101
172 101
173 101
174 101
178 101
181 101
186 101
188 101
189 101
199 101
201 101
105 102
108 102
125 102
127 102
137 102
138 102
141 102
142 102
146 102
147 102
152 102
157 102
159 102
161 102
163 102
165 102
170 102
172 102
173 102
174 102
175 102
179 102
182 102
187 102
189 102
190 102
200 102
201 102
209 102
106 103
109 103
126 103
128 103
138 103
139 103
142 103
143 103
147 103
148 103
153 103
158 103
160 103
162 103
164 103
166 103
171 103
173 103
174 103
175 103
176 103
180 103
183 103
188 103
190 103
191 103
201 103
207 103
209 103
107 104
110 104
127 104
129 104
139 104
140 104
143 104
144 104
148 104
149 104
154 104
159 104
161 104
163 104
165 104
167 104
172 104
174 104
175 104
176 104
177 104
181 104
184 104
189 104
191 104
192 104
200 104
108 105
111 105
128 105
130 105
140 105
141 105
144 105
145 105
149 105
150 105
155 105
160 105
162 105
164 105
166 105
168 105
173 105
175 105
176 105
177 105
178 105
182 105
185 105
190 105
192 105
193 105
201 105
204 105
109 106
112 106
129 106
131 106
141 106
142 106
145 106
146 106
150 106
151 106
156 106
161 106
163 106
165 106
167 106
169 106
174 106
176 106
177 106
178 106
179 106
183 106
186 106
191 106
193 106
194 106
200 106
207 106
110 107
113 107
130 107
132 107
142 107
143 107
146 107
147 107
151 107
152 107
157 107
162 107
164 107
166 107
168 107
170 107
175 107
177 107
178 107
179 107
180 107
184 107
187 107
192 107
194 107
195 107
204 107
111 108
114 108
131 108
133 108
143 108
144 108
147 108
148 108
152 108
153 108
158 108
163 108
165 108
167 108
169 108
171 108
176 108
178 108
179 108
180 108
181 108
185 108
188 108
193 108
195 108
196 108
200 108
112 109
115 109
132 109
134 109
144 109
145 109
148 109
149 109
153 109
154 109
159 109
164 109
166 109
168 109
170 109
172 109
177 109
179 109
180 109
181 109
182 109
186 109
189 109
194 109
196 109
197 109
204 109
205 109
113 110
116 110
133 110
135 110
145 110
146 110
149 110
150 110
154 110
155 110
160 110
165 110
167 110
169 110
171 110
173 110
178 110
180 110
181 110
182 110
183 110
187 110
190 110
195 110
197 110
198 110
201 110
114 111
117 111
134 111
136 111
146 111
147 111
150 111
151 111
155 111
156 111
161 111
166 111
168 111
170 111
172 111
174 111
179 111
181 111
182 111
183 111
184 111
188 111
191 111
196 111
198 111
199 111
204 111
115 112
118 112
135 112
137 112
147 112
148 112
151 112
152 112
156 112
157 112
162 112
167 112
169 112
171 112
173 112
175 112
180 112
182 112
183 112
184 112
185 112
189 112
192 112
197 112
199 112
201 112
207 112
116 113
119 113
136 113
138 113
148 113
149 113
152 113
153 113
157 113
158 113
163 113
168 113
170 113
172 113
174 113
176 113
181 113
183 113
184 113
185 113
186 113
190 113
193 113
198 113
200 113
203 113
117 114
120 114
137 114
139 114
149 114
150 114
153 114
154 114
158 114
159 114
164 114
169 114
171 114
173 114
175 114
177 114
182 114
184 114
185 114
186 114
187 114
191 114
194 114
199 114
201 114
209 114
118 115
121 115
138 115
140 115
150 115
151 115
154 115
155 115
159 115
160 115
165 115
170 115
172 115
174 115
176 115
178 115
183 115
185 115
186 115
187 115
188 115
192 115
195 115
203 115
205 115
119 116
122 116
139 116
141 116
151 116
152 116
155 116
156 116
160 116
161 116
166 116
171 116
173 116
175 116
177 116
179 116
184 116
186 116
187 116
188 116
189 116
193 116
196 116
201 116
204 116
206 116
208 116
209 116
120 117
123 117
140 117
142 117
152 117
153 117
156 117
157 117
161 117
162 117
167 117
172 117
174 117
176 117
178 117
180 117
185 117
187 117
188 117
189 117
190 117
194 117
197 117
208 117
121 118
124 118
141 118
143 118
153 118
154 118
157 118
158 118
162 118
163 118
168 118
173 118
175 118
177 118
179 118
181 118
186 118
188 118
189 118
190 118
191 118
195 118
198 118
200 118
122 119
125 119
142 119
144 119
154 119
155 119
158 119
159 119
163 119
164 119
169 119
174 119
176 119
178 119
180 119
182 119
187 119
189 119
190 119
191 119
192 119
196 119
199 119
200 119
202 119
123 120
126 120
143 120
145 120
155 120
156 120
159 120
160 120
164 120
165 120
170 120
175 120
177 120
179 120
181 120
183 120
188 120
190 120
191 120
192 120
193 120
197 120
204 120
205 120
124 121
127 121
144 121
146 121
156 121
157 121
160 121
161 121
165 121
166 121
171 121
176 121
178 121
180 121
182 121
184 121
189 121
191 121
192 121
193 121
194 121
198 121
204 121
125 122
128 122
145 122
147 122
157 122
158 122
161 122
162 122
166 122
167 122
172 122
177 122
179 122
181 122
183 122
185 122
190 122
192 122
193 122
194 122
195 122
199 122
202 122
126 123
129 123
146 123
148 123
158 123
159 123
162 123
163 123
167 123
168 123
173 123
178 123
180 123
182 123
184 123
186 123
191 123
193 123
194 123
195 123
196 123
200 123
127 124
130 124
147 124
149 124
159 124
160 124
163 124
164 124
168 124
169 124
174 124
179 124
181 124
183 124
185 124
187 124
192 124
194 124
195 124
196 124
197 124
200 124
205 124
128 125
131 125
148 125
150 125
160 125
161 125
164 125
165 125
169 125
170 125
175 125
180 125
182 125
184 125
186 125
188 125
193 125
195 125
196 125
197 125
198 125
203 125
129 126
132 126
149 126
151 126
161 126
162 126
165 126
166 126
170 126
171 126
176 126
181 126
183 126
185 126
187 126
189 126
194 126
196 126
197 126
198 126
199 126
203 126
205 126
208 126
130 127
133 127
150 127
152 127
162 127
163 127
166 127
167 127
171 127
172 127
177 127
182 127
184 127
186 127
188 127
190 127
195 127
197 127
198 127
199 127
200 127
206 127
131 128
134 128
151 128
153 128
163 128
164 128
167 128
168 128
172 128
173 128
178 128
183 128
185 128
187 128
189 128
191 128
196 128
198 128
199 128
200 128
205 128
132 129
135 129
152 129
154 129
164 129
165 129
168 129
169 129
173 129
174 129
179 129
184 129
186 129
188 129
190 129
192 129
197 129
199 129
201 129
203 129
209 129
133 130
136 130
153 130
155 130
165 130
166 130
169 130
170 130
174 130
175 130
180 130
185 130
187 130
189 130
191 130
193 130
198 130
203 130
208 130
134 131
137 131
154 131
156 131
166 131
167 131
170 131
171 131
175 131
176 131
181 131
186 131
188 131
190 131
192 131
194 131
199 131
206 131
135 132
138 132
155 132
157 132
167 132
168 132
171 132
172 132
176 132
177 132
182 132
187 132
189 132
191 132
193 132
195 132
206 132
136 133
139 133
156 133
158 133
168 133
169 133
172 133
173 133
177 133
178 133
183 133
188 133
190 133
192 133
194 133
196 133
201 133
204 133
205 133
137 134
140 134
157 134
159 134
169 134
170 134
173 134
174 134
178 134
179 134
184 134
189 134
191 134
193 134
195 134
197 134
201 134
138 135
141 135
158 135
160 135
170 135
171 135
174 135
175 135
179 135
180 135
185 135
190 135
192 135
194 135
196 135
198 135
203 135
204 135
205 135
139 136
142 136
159 136
161 136
171 136
172 136
175 136
176 136
180 136
181 136
186 136
191 136
193 136
195 136
197 136
199 136
204 136
209 136
140 137
143 137
160 137
162 137
172 137
173 137
176 137
177 137
181 137
182 137
187 137
192 137
194 137
196 137
198 137
201 137
141 138
144 138
161 138
163 138
173 138
174 138
177 138
178 138
182 138
183 138
188 138
193 138
195 138
197 138
199 138
200 138
205 138
142 139
145 139
162 139
164 139
174 139
175 139
178 139
179 139
183 139
184 139
189 139
194 139
196 139
198 139
202 139
208 139
143 140
146 140
163 140
165 140
175 140
176 140
179 140
180 140
184 140
185 140
190 140
195 140
197 140
199 140
200 140
203 140
144 141
147 141
164 141
166 141
176 141
177 141
180 141
181 141
185 141
186 141
191 141
196 141
198 141
202 141
145 142
148 142
165 142
167 142
177 142
178 142
181 142
182 142
186 142
187 142
192 142
197 142
199 142
205 142
146 143
149 143
166 143
168 143
178 143
179 143
182 143
183 143
187 143
188 143
193 143
198 143
206 143
208 143
147 144
150 144
167 144
169 144
179 144
180 144
183 144
184 144
188 144
189 144
194 144
199 144
207 144
148 145
151 145
168 145
170 145
180 145
181 145
184 145
185 145
189 145
190 145
195 145
203 145
205 145
206 145
149 146
152 146
169 146
171 146
181 146
182 146
185 146
186 146
190 146
191 146
196 146
204 146
209 146
150 147
153 147
170 147
172 147
182 147
183 147
186 147
187 147
191 147
192 147
197 147
203 147
206 147
151 148
154 148
171 148
173 148
183 148
184 148
187 148
188 148
192 148
193 148
198 148
201 148
208 148
152 149
155 149
172 149
174 149
184 149
185 149
188 149
189 149
193 149
194 149
199 149
203 149
204 149
207 149
153 150
156 150
173 150
175 150
185 150
186 150
189 150
190 150
194 150
195 150
201 150
154 151
157 151
174 151
176 151
186 151
187 151
190 151
191 151
195 151
196 151
202 151
203 151
155 152
158 152
175 152
177 152
187 152
188 152
191 152
192 152
196 152
197 152
202 152
206 152
156 153
159 153
176 153
178 153
188 153
189 153
192 153
193 153
197 153
198 153
203 153
157 154
160 154
177 154
179 154
189 154
190 154
193 154
194 154
198 154
199 154
207 154
158 155
161 155
178 155
180 155
190 155
191 155
194 155
195 155
199 155
202 155
209 155
159 156
162 156
179 156
181 156
191 156
192 156
195 156
196 156
202 156
160 157
163 157
180 157
182 157
192 157
193 157
196 157
197 157
200 157
161 158
164 158
181 158
183 158
193 158
194 158
197 158
198 158
203 158
206 158
162 159
165 159
182 159
184 159
194 159
195 159
198 159
199 159
204 159
207 159
163 160
166 160
183 160
185 160
195 160
196 160
199 160
200 160
202 160
203 160
164 161
167 161
184 161
186 161
196 161
197 161
202 161
203 161
165 162
168 162
185 162
187 162
197 162
198 162
203 162
204 162
166 163
169 163
186 163
188 163
198 163
199 163
203 163
204 163
207 163
208 163
167 164
170 164
187 164
189 164
199 164
168 165
171 165
188 165
190 165
169 166
172 166
189 166
191 166
200 166
205 166
170 167
173 167
190 167
192 167
201 167
204 167
209 167
171 168
174 168
191 168
193 168
206 168
207 168
172 169
175 169
192 169
194 169
200 169
208 169
173 170
176 170
193 170
195 170
201 170
203 170
207 170
174 171
177 171
194 171
196 171
202 171
207 171
175 172
178 172
195 172
197 172
207 172
176 173
179 173
196 173
198 173
202 173
205 173
206 173
209 173
177 174
180 174
197 174
199 174
204 174
206 174
178 175
181 175
198 175
202 175
203 175
179 176
182 176
199 176
201 176
180 177
183 177
202 177
203 177
204 177
181 178
184 178
203 178
208 178
182 179
185 179
202 179
204 179
183 180
186 180
207 180
184 181
187 181
207 181
185 182
188 182
206 182
186 183
189 183
187 184
190 184
202 184
204 184
188 185
191 185
207 185
189 186
192 186
200 186
202 186
209 186
190 187
193 187
202 187
209 187
191 188
194 188
200 188
203 188
192 189
195 189
202 189
207 189
193 190
196 190
204 190
206 190
194 191
197 191
205 191
209 191
195 192
198 192
204 192
196 193
199 193
202 193
197 194
207 194
198 195
208 195
199 196
201 196
202 196
204 197
207 197
200 198
201 198
200 199
208 199
201 200
202 200
205 200
206 200
209 200
202 201
203 201
204 201
207 201
208 201
203 202
205 202
207 202
204 203
206 203
208 203
209 203
205 204
206 204
207 204
209 204
206 205
208 205
209 205
207 206
208 206
208 207
209 207
209 208
