209
11514
0,3
3,0
0,6
6,0
0,23
23,0
0,25
25,0
0,35
35,0
0,36
36,0
0,39
39,0
0,40
40,0
0,44
44,0
0,45
45,0
0,50
50,0
0,55
55,0
0,57
57,0
0,59
59,0
0,61
61,0
0,63
63,0
0,68
68,0
0,70
70,0
0,71
71,0
0,72
72,0
0,73
73,0
0,77
77,0
0,80
80,0
0,85
85,0
0,87
87,0
0,88
88,0
0,98
98,0
0,101
101,0
0,111
111,0
0,112
112,0
0,114
114,0
0,119
119,0
0,122
122,0
0,126
126,0
0,127
127,0
0,128
128,0
0,129
129,0
0,131
131,0
0,136
136,0
0,138
138,0
0,140
140,0
0,142
142,0
0,144
144,0
0,149
149,0
0,154
154,0
0,155
155,0
0,159
159,0
0,160
160,0
0,163
163,0
0,164
164,0
0,174
174,0
0,176
176,0
0,193
193,0
0,196
196,0
0,208
208,0
1,4
4,1
1,7
7,1
1,24
24,1
1,26
26,1
1,36
36,1
1,37
37,1
1,40
40,1
1,41
41,1
1,45
45,1
1,46
46,1
1,51
51,1
1,56
56,1
1,58
58,1
1,60
60,1
1,62
62,1
1,64
64,1
1,69
69,1
1,71
71,1
1,72
72,1
1,73
73,1
1,74
74,1
1,78
78,1
1,81
81,1
1,86
86,1
1,88
88,1
1,89
89,1
1,99
99,1
1,102
102,1
1,112
112,1
1,113
113,1
1,115
115,1
1,120
120,1
1,123
123,1
1,127
127,1
1,128
128,1
1,129
129,1
1,130
130,1
1,132
132,1
1,137
137,1
1,139
139,1
1,141
141,1
1,143
143,1
1,145
145,1
1,150
150,1
1,155
155,1
1,156
156,1
1,160
160,1
1,161
161,1
1,164
164,1
1,165
165,1
1,175
175,1
1,177
177,1
1,194
194,1
1,197
197,1
1,201
201,1
1,204
204,1
2,5
5,2
2,8
8,2
2,25
25,2
2,27
27,2
2,37
37,2
2,38
38,2
2,41
41,2
2,42
42,2
2,46
46,2
2,47
47,2
2,52
52,2
2,57
57,2
2,59
59,2
2,61
61,2
2,63
63,2
2,65
65,2
2,70
70,2
2,72
72,2
2,73
73,2
2,74
74,2
2,75
75,2
2,79
79,2
2,82
82,2
2,87
87,2
2,89
89,2
2,90
90,2
2,100
100,2
2,103
103,2
2,113
113,2
2,114
114,2
2,116
116,2
2,121
121,2
2,124
124,2
2,128
128,2
2,129
129,2
2,130
130,2
2,131
131,2
2,133
133,2
2,138
138,2
2,140
140,2
2,142
142,2
2,144
144,2
2,146
146,2
2,151
151,2
2,156
156,2
2,157
157,2
2,161
161,2
2,162
162,2
2,165
165,2
2,166
166,2
2,176
176,2
2,178
178,2
2,195
195,2
2,198
198,2
2,199
199,2
2,202
202,2
3,6
6,3
3,9
9,3
3,26
26,3
3,28
28,3
3,38
38,3
3,39
39,3
3,42
42,3
3,43
43,3
3,47
47,3
3,48
48,3
3,53
53,3
3,58
58,3
3,60
60,3
3,62
62,3
3,64
64,3
3,66
66,3
3,71
71,3
3,73
73,3
3,74
74,3
3,75
75,3
3,76
76,3
3,80
80,3
3,83
83,3
3,88
88,3
3,90
90,3
3,91
91,3
3,101
101,3
3,104
104,3
3,114
114,3
3,115
115,3
3,117
117,3
3,122
122,3
3,125
125,3
3,129
129,3
3,130
130,3
3,131
131,3
3,132
132,3
3,134
134,3
3,139
139,3
3,141
141,3
3,143
143,3
3,145
145,3
3,147
147,3
3,152
152,3
3,157
157,3
3,158
158,3
3,162
162,3
3,163
163,3
3,166
166,3
3,167
167,3
3,177
177,3
3,179
179,3
3,196
196,3
3,199
199,3
3,204
204,3
4,7
7,4
4,10
10,4
4,27
27,4
4,29
29,4
4,39
39,4
4,40
40,4
4,43
43,4
4,44
44,4
4,48
48,4
4,49
49,4
4,54
54,4
4,59
59,4
4,61
61,4
4,63
63,4
4,65
65,4
4,67
67,4
4,72
72,4
4,74
74,4
4,75
75,4
4,76
76,4
4,77
77,4
4,81
81,4
4,84
84,4
4,89
89,4
4,91
91,4
4,92
92,4
4,102
102,4
4,105
105,4
4,115
115,4
4,116
116,4
4,118
118,4
4,123
123,4
4,126
126,4
4,130
130,4
4,131
131,4
4,132
132,4
4,133
133,4
4,135
135,4
4,140
140,4
4,142
142,4
4,144
144,4
4,146
146,4
4,148
148,4
4,153
153,4
4,158
158,4
4,159
159,4
4,163
163,4
4,164
164,4
4,167
167,4
4,168
168,4
4,178
178,4
4,180
180,4
4,197
197,4
4,201
201,4
5,8
8,5
5,11
11,5
5,28
28,5
5,30
30,5
5,40
40,5
5,41
41,5
5,44
44,5
5,45
45,5
5,49
49,5
5,50
50,5
5,55
55,5
5,60
60,5
5,62
62,5
5,64
64,5
5,66
66,5
5,68
68,5
5,73
73,5
5,75
75,5
5,76
76,5
5,77
77,5
5,78
78,5
5,82
82,5
5,85
85,5
5,90
90,5
5,92
92,5
5,93
93,5
5,103
103,5
5,106
106,5
5,116
116,5
5,117
117,5
5,119
119,5
5,124
124,5
5,127
127,5
5,131
131,5
5,132
132,5
5,133
133,5
5,134
134,5
5,136
136,5
5,141
141,5
5,143
143,5
5,145
145,5
5,147
147,5
5,149
149,5
5,154
154,5
5,159
159,5
5,160
160,5
5,164
164,5
5,165
165,5
5,168
168,5
5,169
169,5
5,179
179,5
5,181
181,5
5,198
198,5
5,204
204,5
5,208
208,5
6,9
9,6
6,12
12,6
6,29
29,6
6,31
31,6
6,41
41,6
6,42
42,6
6,45
45,6
6,46
46,6
6,50
50,6
6,51
51,6
6,56
56,6
6,61
61,6
6,63
63,6
6,65
65,6
6,67
67,6
6,69
69,6
6,74
74,6
6,76
76,6
6,77
77,6
6,78
78,6
6,79
79,6
6,83
83,6
6,86
86,6
6,91
91,6
6,93
93,6
6,94
94,6
6,104
104,6
6,107
107,6
6,117
117,6
6,118
118,6
6,120
120,6
6,125
125,6
6,128
128,6
6,132
132,6
6,133
133,6
6,134
134,6
6,135
135,6
6,137
137,6
6,142
142,6
6,144
144,6
6,146
146,6
6,148
148,6
6,150
150,6
6,155
155,6
6,160
160,6
6,161
161,6
6,165
165,6
6,166
166,6
6,169
169,6
6,170
170,6
6,180
180,6
6,182
182,6
6,207
207,6
7,10
10,7
7,13
13,7
7,30
30,7
7,32
32,7
7,42
42,7
7,43
43,7
7,46
46,7
7,47
47,7
7,51
51,7
7,52
52,7
7,57
57,7
7,62
62,7
7,64
64,7
7,66
66,7
7,68
68,7
7,70
70,7
7,75
75,7
7,77
77,7
7,78
78,7
7,79
79,7
7,80
80,7
7,84
84,7
7,87
87,7
7,92
92,7
7,94
94,7
7,95
95,7
7,105
105,7
7,108
108,7
7,118
118,7
7,119
119,7
7,121
121,7
7,126
126,7
7,129
129,7
7,133
133,7
7,134
134,7
7,135
135,7
7,136
136,7
7,138
138,7
7,143
143,7
7,145
145,7
7,147
147,7
7,149
149,7
7,151
151,7
7,156
156,7
7,161
161,7
7,162
162,7
7,166
166,7
7,167
167,7
7,170
170,7
7,171
171,7
7,181
181,7
7,183
183,7
7,199
199,7
7,203
203,7
8,11
11,8
8,14
14,8
8,31
31,8
8,33
33,8
8,43
43,8
8,44
44,8
8,47
47,8
8,48
48,8
8,52
52,8
8,53
53,8
8,58
58,8
8,63
63,8
8,65
65,8
8,67
67,8
8,69
69,8
8,71
71,8
8,76
76,8
8,78
78,8
8,79
79,8
8,80
80,8
8,81
81,8
8,85
85,8
8,88
88,8
8,93
93,8
8,95
95,8
8,96
96,8
8,106
106,8
8,109
109,8
8,119
119,8
8,120
120,8
8,122
122,8
8,127
127,8
8,130
130,8
8,134
134,8
8,135
135,8
8,136
136,8
8,137
137,8
8,139
139,8
8,144
144,8
8,146
146,8
8,148
148,8
8,150
150,8
8,152
152,8
8,157
157,8
8,162
162,8
8,163
163,8
8,167
167,8
8,168
168,8
8,171
171,8
8,172
172,8
8,182
182,8
8,184
184,8
8,199
199,8
8,200
200,8
9,12
12,9
9,15
15,9
9,32
32,9
9,34
34,9
9,44
44,9
9,45
45,9
9,48
48,9
9,49
49,9
9,53
53,9
9,54
54,9
9,59
59,9
9,64
64,9
9,66
66,9
9,68
68,9
9,70
70,9
9,72
72,9
9,77
77,9
9,79
79,9
9,80
80,9
9,81
81,9
9,82
82,9
9,86
86,9
9,89
89,9
9,94
94,9
9,96
96,9
9,97
97,9
9,107
107,9
9,110
110,9
9,120
120,9
9,121
121,9
9,123
123,9
9,128
128,9
9,131
131,9
9,135
135,9
9,136
136,9
9,137
137,9
9,138
138,9
9,140
140,9
9,145
145,9
9,147
147,9
9,149
149,9
9,151
151,9
9,153
153,9
9,158
158,9
9,163
163,9
9,164
164,9
9,168
168,9
9,169
169,9
9,172
172,9
9,173
173,9
9,183
183,9
9,185
185,9
9,200
200,9
9,205
205,9
10,13
13,10
10,16
16,10
10,33
33,10
10,35
35,10
10,45
45,10
10,46
46,10
10,49
49,10
10,50
50,10
10,54
54,10
10,55
55,10
10,60
60,10
10,65
65,10
10,67
67,10
10,69
69,10
10,71
71,10
10,73
73,10
10,78
78,10
10,80
80,10
10,81
81,10
10,82
82,10
10,83
83,10
10,87
87,10
10,90
90,10
10,95
95,10
10,97
97,10
10,98
98,10
10,108
108,10
10,111
111,10
10,121
121,10
10,122
122,10
10,124
124,10
10,129
129,10
10,132
132,10
10,136
136,10
10,137
137,10
10,138
138,10
10,139
139,10
10,141
141,10
10,146
146,10
10,148
148,10
10,150
150,10
10,152
152,10
10,154
154,10
10,159
159,10
10,164
164,10
10,165
165,10
10,169
169,10
10,170
170,10
10,173
173,10
10,174
174,10
10,184
184,10
10,186
186,10
10,205
205,10
11,14
14,11
11,17
17,11
11,34
34,11
11,36
36,11
11,46
46,11
11,47
47,11
11,50
50,11
11,51
51,11
11,55
55,11
11,56
56,11
11,61
61,11
11,66
66,11
11,68
68,11
11,70
70,11
11,72
72,11
11,74
74,11
11,79
79,11
11,81
81,11
11,82
82,11
11,83
83,11
11,84
84,11
11,88
88,11
11,91
91,11
11,96
96,11
11,98
98,11
11,99
99,11
11,109
109,11
11,112
112,11
11,122
122,11
11,123
123,11
11,125
125,11
11,130
130,11
11,133
133,11
11,137
137,11
11,138
138,11
11,139
139,11
11,140
140,11
11,142
142,11
11,147
147,11
11,149
149,11
11,151
151,11
11,153
153,11
11,155
155,11
11,160
160,11
11,165
165,11
11,166
166,11
11,170
170,11
11,171
171,11
11,174
174,11
11,175
175,11
11,185
185,11
11,187
187,11
11,203
203,11
12,15
15,12
12,18
18,12
12,35
35,12
12,37
37,12
12,47
47,12
12,48
48,12
12,51
51,12
12,52
52,12
12,56
56,12
12,57
57,12
12,62
62,12
12,67
67,12
12,69
69,12
12,71
71,12
12,73
73,12
12,75
75,12
12,80
80,12
12,82
82,12
12,83
83,12
12,84
84,12
12,85
85,12
12,89
89,12
12,92
92,12
12,97
97,12
12,99
99,12
12,100
100,12
12,110
110,12
12,113
113,12
12,123
123,12
12,124
124,12
12,126
126,12
12,131
131,12
12,134
134,12
12,138
138,12
12,139
139,12
12,140
140,12
12,141
141,12
12,143
143,12
12,148
148,12
12,150
150,12
12,152
152,12
12,154
154,12
12,156
156,12
12,161
161,12
12,166
166,12
12,167
167,12
12,171
171,12
12,172
172,12
12,175
175,12
12,176
176,12
12,186
186,12
12,188
188,12
12,200
200,12
13,16
16,13
13,19
19,13
13,36
36,13
13,38
38,13
13,48
48,13
13,49
49,13
13,52
52,13
13,53
53,13
13,57
57,13
13,58
58,13
13,63
63,13
13,68
68,13
13,70
70,13
13,72
72,13
13,74
74,13
13,76
76,13
13,81
81,13
13,83
83,13
13,84
84,13
13,85
85,13
13,86
86,13
13,90
90,13
13,93
93,13
13,98
98,13
13,100
100,13
13,101
101,13
13,111
111,13
13,114
114,13
13,124
124,13
13,125
125,13
13,127
127,13
13,132
132,13
13,135
135,13
13,139
139,13
13,140
140,13
13,141
141,13
13,142
142,13
13,144
144,13
13,149
149,13
13,151
151,13
13,153
153,13
13,155
155,13
13,157
157,13
13,162
162,13
13,167
167,13
13,168
168,13
13,172
172,13
13,173
173,13
13,176
176,13
13,177
177,13
13,187
187,13
13,189
189,13
13,199
199,13
14,17
17,14
14,20
20,14
14,37
37,14
14,39
39,14
14,49
49,14
14,50
50,14
14,53
53,14
14,54
54,14
14,58
58,14
14,59
59,14
14,64
64,14
14,69
69,14
14,71
71,14
14,73
73,14
14,75
75,14
14,77
77,14
14,82
82,14
14,84
84,14
14,85
85,14
14,86
86,14
14,87
87,14
14,91
91,14
14,94
94,14
14,99
99,14
14,101
101,14
14,102
102,14
14,112
112,14
14,115
115,14
14,125
125,14
14,126
126,14
14,128
128,14
14,133
133,14
14,136
136,14
14,140
140,14
14,141
141,14
14,142
142,14
14,143
143,14
14,145
145,14
14,150
150,14
14,152
152,14
14,154
154,14
14,156
156,14
14,158
158,14
14,163
163,14
14,168
168,14
14,169
169,14
14,173
173,14
14,174
174,14
14,177
177,14
14,178
178,14
14,188
188,14
14,190
190,14
14,201
201,14
14,204
204,14
14,205
205,14
15,18
18,15
15,21
21,15
15,38
38,15
15,40
40,15
15,50
50,15
15,51
51,15
15,54
54,15
15,55
55,15
15,59
59,15
15,60
60,15
15,65
65,15
15,70
70,15
15,72
72,15
15,74
74,15
15,76
76,15
15,78
78,15
15,83
83,15
15,85
85,15
15,86
86,15
15,87
87,15
15,88
88,15
15,92
92,15
15,95
95,15
15,100
100,15
15,102
102,15
15,103
103,15
15,113
113,15
15,116
116,15
15,126
126,15
15,127
127,15
15,129
129,15
15,134
134,15
15,137
137,15
15,141
141,15
15,142
142,15
15,143
143,15
15,144
144,15
15,146
146,15
15,151
151,15
15,153
153,15
15,155
155,15
15,157
157,15
15,159
159,15
15,164
164,15
15,169
169,15
15,170
170,15
15,174
174,15
15,175
175,15
15,178
178,15
15,179
179,15
15,189
189,15
15,191
191,15
15,208
208,15
16,19
19,16
16,22
22,16
16,39
39,16
16,41
41,16
16,51
51,16
16,52
52,16
16,55
55,16
16,56
56,16
16,60
60,16
16,61
61,16
16,66
66,16
16,71
71,16
16,73
73,16
16,75
75,16
16,77
77,16
16,79
79,16
16,84
84,16
16,86
86,16
16,87
87,16
16,88
88,16
16,89
89,16
16,93
93,16
16,96
96,16
16,101
101,16
16,103
103,16
16,104
104,16
16,114
114,16
16,117
117,16
16,127
127,16
16,128
128,16
16,130
130,16
16,135
135,16
16,138
138,16
16,142
142,16
16,143
143,16
16,144
144,16
16,145
145,16
16,147
147,16
16,152
152,16
16,154
154,16
16,156
156,16
16,158
158,16
16,160
160,16
16,165
165,16
16,170
170,16
16,171
171,16
16,175
175,16
16,176
176,16
16,179
179,16
16,180
180,16
16,190
190,16
16,192
192,16
16,202
202,16
17,20
20,17
17,23
23,17
17,40
40,17
17,42
42,17
17,52
52,17
17,53
53,17
17,56
56,17
17,57
57,17
17,61
61,17
17,62
62,17
17,67
67,17
17,72
72,17
17,74
74,17
17,76
76,17
17,78
78,17
17,80
80,17
17,85
85,17
17,87
87,17
17,88
88,17
17,89
89,17
17,90
90,17
17,94
94,17
17,97
97,17
17,102
102,17
17,104
104,17
17,105
105,17
17,115
115,17
17,118
118,17
17,128
128,17
17,129
129,17
17,131
131,17
17,136
136,17
17,139
139,17
17,143
143,17
17,144
144,17
17,145
145,17
17,146
146,17
17,148
148,17
17,153
153,17
17,155
155,17
17,157
157,17
17,159
159,17
17,161
161,17
17,166
166,17
17,171
171,17
17,172
172,17
17,176
176,17
17,177
177,17
17,180
180,17
17,181
181,17
17,191
191,17
17,193
193,17
17,200
200,17
17,201
201,17
18,21
21,18
18,24
24,18
18,41
41,18
18,43
43,18
18,53
53,18
18,54
54,18
18,57
57,18
18,58
58,18
18,62
62,18
18,63
63,18
18,68
68,18
18,73
73,18
18,75
75,18
18,77
77,18
18,79
79,18
18,81
81,18
18,86
86,18
18,88
88,18
18,89
89,18
18,90
90,18
18,91
91,18
18,95
95,18
18,98
98,18
18,103
103,18
18,105
105,18
18,106
106,18
18,116
116,18
18,119
119,18
18,129
129,18
18,130
130,18
18,132
132,18
18,137
137,18
18,140
140,18
18,144
144,18
18,145
145,18
18,146
146,18
18,147
147,18
18,149
149,18
18,154
154,18
18,156
156,18
18,158
158,18
18,160
160,18
18,162
162,18
18,167
167,18
18,172
172,18
18,173
173,18
18,177
177,18
18,178
178,18
18,181
181,18
18,182
182,18
18,192
192,18
18,194
194,18
18,199
199,18
18,200
200,18
18,202
202,18
19,22
22,19
19,25
25,19
19,42
42,19
19,44
44,19
19,54
54,19
19,55
55,19
19,58
58,19
19,59
59,19
19,63
63,19
19,64
64,19
19,69
69,19
19,74
74,19
19,76
76,19
19,78
78,19
19,80
80,19
19,82
82,19
19,87
87,19
19,89
89,19
19,90
90,19
19,91
91,19
19,92
92,19
19,96
96,19
19,99
99,19
19,104
104,19
19,106
106,19
19,107
107,19
19,117
117,19
19,120
120,19
19,130
130,19
19,131
131,19
19,133
133,19
19,138
138,19
19,141
141,19
19,145
145,19
19,146
146,19
19,147
147,19
19,148
148,19
19,150
150,19
19,155
155,19
19,157
157,19
19,159
159,19
19,161
161,19
19,163
163,19
19,168
168,19
19,173
173,19
19,174
174,19
19,178
178,19
19,179
179,19
19,182
182,19
19,183
183,19
19,193
193,19
19,195
195,19
19,202
202,19
19,208
208,19
20,23
23,20
20,26
26,20
20,43
43,20
20,45
45,20
20,55
55,20
20,56
56,20
20,59
59,20
20,60
60,20
20,64
64,20
20,65
65,20
20,70
70,20
20,75
75,20
20,77
77,20
20,79
79,20
20,81
81,20
20,83
83,20
20,88
88,20
20,90
90,20
20,91
91,20
20,92
92,20
20,93
93,20
20,97
97,20
20,100
100,20
20,105
105,20
20,107
107,20
20,108
108,20
20,118
118,20
20,121
121,20
20,131
131,20
20,132
132,20
20,134
134,20
20,139
139,20
20,142
142,20
20,146
146,20
20,147
147,20
20,148
148,20
20,149
149,20
20,151
151,20
20,156
156,20
20,158
158,20
20,160
160,20
20,162
162,20
20,164
164,20
20,169
169,20
20,174
174,20
20,175
175,20
20,179
179,20
20,180
180,20
20,183
183,20
20,184
184,20
20,194
194,20
20,196
196,20
20,199
199,20
20,204
204,20
21,24
24,21
21,27
27,21
21,44
44,21
21,46
46,21
21,56
56,21
21,57
57,21
21,60
60,21
21,61
61,21
21,65
65,21
21,66
66,21
21,71
71,21
21,76
76,21
21,78
78,21
21,80
80,21
21,82
82,21
21,84
84,21
21,89
89,21
21,91
91,21
21,92
92,21
21,93
93,21
21,94
94,21
21,98
98,21
21,101
101,21
21,106
106,21
21,108
108,21
21,109
109,21
21,119
119,21
21,122
122,21
21,132
132,21
21,133
133,21
21,135
135,21
21,140
140,21
21,143
143,21
21,147
147,21
21,148
148,21
21,149
149,21
21,150
150,21
21,152
152,21
21,157
157,21
21,159
159,21
21,161
161,21
21,163
163,21
21,165
165,21
21,170
170,21
21,175
175,21
21,176
176,21
21,180
180,21
21,181
181,21
21,184
184,21
21,185
185,21
21,195
195,21
21,197
197,21
21,202
202,21
21,207
207,21
22,25
25,22
22,28
28,22
22,45
45,22
22,47
47,22
22,57
57,22
22,58
58,22
22,61
61,22
22,62
62,22
22,66
66,22
22,67
67,22
22,72
72,22
22,77
77,22
22,79
79,22
22,81
81,22
22,83
83,22
22,85
85,22
22,90
90,22
22,92
92,22
22,93
93,22
22,94
94,22
22,95
95,22
22,99
99,22
22,102
102,22
22,107
107,22
22,109
109,22
22,110
110,22
22,120
120,22
22,123
123,22
22,133
133,22
22,134
134,22
22,136
136,22
22,141
141,22
22,144
144,22
22,148
148,22
22,149
149,22
22,150
150,22
22,151
151,22
22,153
153,22
22,158
158,22
22,160
160,22
22,162
162,22
22,164
164,22
22,166
166,22
22,171
171,22
22,176
176,22
22,177
177,22
22,181
181,22
22,182
182,22
22,185
185,22
22,186
186,22
22,196
196,22
22,198
198,22
22,199
199,22
22,203
203,22
23,26
26,23
23,29
29,23
23,46
46,23
23,48
48,23
23,58
58,23
23,59
59,23
23,62
62,23
23,63
63,23
23,67
67,23
23,68
68,23
23,73
73,23
23,78
78,23
23,80
80,23
23,82
82,23
23,84
84,23
23,86
86,23
23,91
91,23
23,93
93,23
23,94
94,23
23,95
95,23
23,96
96,23
23,100
100,23
23,103
103,23
23,108
108,23
23,110
110,23
23,111
111,23
23,121
121,23
23,124
124,23
23,134
134,23
23,135
135,23
23,137
137,23
23,142
142,23
23,145
145,23
23,149
149,23
23,150
150,23
23,151
151,23
23,152
152,23
23,154
154,23
23,159
159,23
23,161
161,23
23,163
163,23
23,165
165,23
23,167
167,23
23,172
172,23
23,177
177,23
23,178
178,23
23,182
182,23
23,183
183,23
23,186
186,23
23,187
187,23
23,197
197,23
23,200
200,23
24,27
27,24
24,30
30,24
24,47
47,24
24,49
49,24
24,59
59,24
24,60
60,24
24,63
63,24
24,64
64,24
24,68
68,24
24,69
69,24
24,74
74,24
24,79
79,24
24,81
81,24
24,83
83,24
24,85
85,24
24,87
87,24
24,92
92,24
24,94
94,24
24,95
95,24
24,96
96,24
24,97
97,24
24,101
101,24
24,104
104,24
24,109
109,24
24,111
111,24
24,112
112,24
24,122
122,24
24,125
125,24
24,135
135,24
24,136
136,24
24,138
138,24
24,143
143,24
24,146
146,24
24,150
150,24
24,151
151,24
24,152
152,24
24,153
153,24
24,155
155,24
24,160
160,24
24,162
162,24
24,164
164,24
24,166
166,24
24,168
168,24
24,173
173,24
24,178
178,24
24,179
179,24
24,183
183,24
24,184
184,24
24,187
187,24
24,188
188,24
24,198
198,24
24,199
199,24
24,203
203,24
24,204
204,24
25,28
28,25
25,31
31,25
25,48
48,25
25,50
50,25
25,60
60,25
25,61
61,25
25,64
64,25
25,65
65,25
25,69
69,25
25,70
70,25
25,75
75,25
25,80
80,25
25,82
82,25
25,84
84,25
25,86
86,25
25,88
88,25
25,93
93,25
25,95
95,25
25,96
96,25
25,97
97,25
25,98
98,25
25,102
102,25
25,105
105,25
25,110
110,25
25,112
112,25
25,113
113,25
25,123
123,25
25,126
126,25
25,136
136,25
25,137
137,25
25,139
139,25
25,144
144,25
25,147
147,25
25,151
151,25
25,152
152,25
25,153
153,25
25,154
154,25
25,156
156,25
25,161
161,25
25,163
163,25
25,165
165,25
25,167
167,25
25,169
169,25
25,174
174,25
25,179
179,25
25,180
180,25
25,184
184,25
25,185
185,25
25,188
188,25
25,189
189,25
25,204
204,25
26,29
29,26
26,32
32,26
26,49
49,26
26,51
51,26
26,61
61,26
26,62
62,26
26,65
65,26
26,66
66,26
26,70
70,26
26,71
71,26
26,76
76,26
26,81
81,26
26,83
83,26
26,85
85,26
26,87
87,26
26,89
89,26
26,94
94,26
26,96
96,26
26,97
97,26
26,98
98,26
26,99
99,26
26,103
103,26
26,106
106,26
26,111
111,26
26,113
113,26
26,114
114,26
26,124
124,26
26,127
127,26
26,137
137,26
26,138
138,26
26,140
140,26
26,145
145,26
26,148
148,26
26,152
152,26
26,153
153,26
26,154
154,26
26,155
155,26
26,157
157,26
26,162
162,26
26,164
164,26
26,166
166,26
26,168
168,26
26,170
170,26
26,175
175,26
26,180
180,26
26,181
181,26
26,185
185,26
26,186
186,26
26,189
189,26
26,190
190,26
26,199
199,26
26,202
202,26
27,30
30,27
27,33
33,27
27,50
50,27
27,52
52,27
27,62
62,27
27,63
63,27
27,66
66,27
27,67
67,27
27,71
71,27
27,72
72,27
27,77
77,27
27,82
82,27
27,84
84,27
27,86
86,27
27,88
88,27
27,90
90,27
27,95
95,27
27,97
97,27
27,98
98,27
27,99
99,27
27,100
100,27
27,104
104,27
27,107
107,27
27,112
112,27
27,114
114,27
27,115
115,27
27,125
125,27
27,128
128,27
27,138
138,27
27,139
139,27
27,141
141,27
27,146
146,27
27,149
149,27
27,153
153,27
27,154
154,27
27,155
155,27
27,156
156,27
27,158
158,27
27,163
163,27
27,165
165,27
27,167
167,27
27,169
169,27
27,171
171,27
27,176
176,27
27,181
181,27
27,182
182,27
27,186
186,27
27,187
187,27
27,190
190,27
27,191
191,27
27,201
201,27
27,206
206,27
28,31
31,28
28,34
34,28
28,51
51,28
28,53
53,28
28,63
63,28
28,64
64,28
28,67
67,28
28,68
68,28
28,72
72,28
28,73
73,28
28,78
78,28
28,83
83,28
28,85
85,28
28,87
87,28
28,89
89,28
28,91
91,28
28,96
96,28
28,98
98,28
28,99
99,28
28,100
100,28
28,101
101,28
28,105
105,28
28,108
108,28
28,113
113,28
28,115
115,28
28,116
116,28
28,126
126,28
28,129
129,28
28,139
139,28
28,140
140,28
28,142
142,28
28,147
147,28
28,150
150,28
28,154
154,28
28,155
155,28
28,156
156,28
28,157
157,28
28,159
159,28
28,164
164,28
28,166
166,28
28,168
168,28
28,170
170,28
28,172
172,28
28,177
177,28
28,182
182,28
28,183
183,28
28,187
187,28
28,188
188,28
28,191
191,28
28,192
192,28
28,200
200,28
28,202
202,28
28,206
206,28
29,32
32,29
29,35
35,29
29,52
52,29
29,54
54,29
29,64
64,29
29,65
65,29
29,68
68,29
29,69
69,29
29,73
73,29
29,74
74,29
29,79
79,29
29,84
84,29
29,86
86,29
29,88
88,29
29,90
90,29
29,92
92,29
29,97
97,29
29,99
99,29
29,100
100,29
29,101
101,29
29,102
102,29
29,106
106,29
29,109
109,29
29,114
114,29
29,116
116,29
29,117
117,29
29,127
127,29
29,130
130,29
29,140
140,29
29,141
141,29
29,143
143,29
29,148
148,29
29,151
151,29
29,155
155,29
29,156
156,29
29,157
157,29
29,158
158,29
29,160
160,29
29,165
165,29
29,167
167,29
29,169
169,29
29,171
171,29
29,173
173,29
29,178
178,29
29,183
183,29
29,184
184,29
29,188
188,29
29,189
189,29
29,192
192,29
29,193
193,29
29,204
204,29
29,208
208,29
30,33
33,30
30,36
36,30
30,53
53,30
30,55
55,30
30,65
65,30
30,66
66,30
30,69
69,30
30,70
70,30
30,74
74,30
30,75
75,30
30,80
80,30
30,85
85,30
30,87
87,30
30,89
89,30
30,91
91,30
30,93
93,30
30,98
98,30
30,100
100,30
30,101
101,30
30,102
102,30
30,103
103,30
30,107
107,30
30,110
110,30
30,115
115,30
30,117
117,30
30,118
118,30
30,128
128,30
30,131
131,30
30,141
141,30
30,142
142,30
30,144
144,30
30,149
149,30
30,152
152,30
30,156
156,30
30,157
157,30
30,158
158,30
30,159
159,30
30,161
161,30
30,166
166,30
30,168
168,30
30,170
170,30
30,172
172,30
30,174
174,30
30,179
179,30
30,184
184,30
30,185
185,30
30,189
189,30
30,190
190,30
30,193
193,30
30,194
194,30
30,200
200,30
30,201
201,30
31,34
34,31
31,37
37,31
31,54
54,31
31,56
56,31
31,66
66,31
31,67
67,31
31,70
70,31
31,71
71,31
31,75
75,31
31,76
76,31
31,81
81,31
31,86
86,31
31,88
88,31
31,90
90,31
31,92
92,31
31,94
94,31
31,99
99,31
31,101
101,31
31,102
102,31
31,103
103,31
31,104
104,31
31,108
108,31
31,111
111,31
31,116
116,31
31,118
118,31
31,119
119,31
31,129
129,31
31,132
132,31
31,142
142,31
31,143
143,31
31,145
145,31
31,150
150,31
31,153
153,31
31,157
157,31
31,158
158,31
31,159
159,31
31,160
160,31
31,162
162,31
31,167
167,31
31,169
169,31
31,171
171,31
31,173
173,31
31,175
175,31
31,180
180,31
31,185
185,31
31,186
186,31
31,190
190,31
31,191
191,31
31,194
194,31
31,195
195,31
31,199
199,31
32,35
35,32
32,38
38,32
32,55
55,32
32,57
57,32
32,67
67,32
32,68
68,32
32,71
71,32
32,72
72,32
32,76
76,32
32,77
77,32
32,82
82,32
32,87
87,32
32,89
89,32
32,91
91,32
32,93
93,32
32,95
95,32
32,100
100,32
32,102
102,32
32,103
103,32
32,104
104,32
32,105
105,32
32,109
109,32
32,112
112,32
32,117
117,32
32,119
119,32
32,120
120,32
32,130
130,32
32,133
133,32
32,143
143,32
32,144
144,32
32,146
146,32
32,151
151,32
32,154
154,32
32,158
158,32
32,159
159,32
32,160
160,32
32,161
161,32
32,163
163,32
32,168
168,32
32,170
170,32
32,172
172,32
32,174
174,32
32,176
176,32
32,181
181,32
32,186
186,32
32,187
187,32
32,191
191,32
32,192
192,32
32,195
195,32
32,196
196,32
32,200
200,32
32,202
202,32
33,36
36,33
33,39
39,33
33,56
56,33
33,58
58,33
33,68
68,33
33,69
69,33
33,72
72,33
33,73
73,33
33,77
77,33
33,78
78,33
33,83
83,33
33,88
88,33
33,90
90,33
33,92
92,33
33,94
94,33
33,96
96,33
33,101
101,33
33,103
103,33
33,104
104,33
33,105
105,33
33,106
106,33
33,110
110,33
33,113
113,33
33,118
118,33
33,120
120,33
33,121
121,33
33,131
131,33
33,134
134,33
33,144
144,33
33,145
145,33
33,147
147,33
33,152
152,33
33,155
155,33
33,159
159,33
33,160
160,33
33,161
161,33
33,162
162,33
33,164
164,33
33,169
169,33
33,171
171,33
33,173
173,33
33,175
175,33
33,177
177,33
33,182
182,33
33,187
187,33
33,188
188,33
33,192
192,33
33,193
193,33
33,196
196,33
33,197
197,33
33,199
199,33
33,204
204,33
34,37
37,34
34,40
40,34
34,57
57,34
34,59
59,34
34,69
69,34
34,70
70,34
34,73
73,34
34,74
74,34
34,78
78,34
34,79
79,34
34,84
84,34
34,89
89,34
34,91
91,34
34,93
93,34
34,95
95,34
34,97
97,34
34,102
102,34
34,104
104,34
34,105
105,34
34,106
106,34
34,107
107,34
34,111
111,34
34,114
114,34
34,119
119,34
34,121
121,34
34,122
122,34
34,132
132,34
34,135
135,34
34,145
145,34
34,146
146,34
34,148
148,34
34,153
153,34
34,156
156,34
34,160
160,34
34,161
161,34
34,162
162,34
34,163
163,34
34,165
165,34
34,170
170,34
34,172
172,34
34,174
174,34
34,176
176,34
34,178
178,34
34,183
183,34
34,188
188,34
34,189
189,34
34,193
193,34
34,194
194,34
34,197
197,34
34,198
198,34
34,199
199,34
34,202
202,34
35,38
38,35
35,41
41,35
35,58
58,35
35,60
60,35
35,70
70,35
35,71
71,35
35,74
74,35
35,75
75,35
35,79
79,35
35,80
80,35
35,85
85,35
35,90
90,35
35,92
92,35
35,94
94,35
35,96
96,35
35,98
98,35
35,103
103,35
35,105
105,35
35,106
106,35
35,107
107,35
35,108
108,35
35,112
112,35
35,115
115,35
35,120
120,35
35,122
122,35
35,123
123,35
35,133
133,35
35,136
136,35
35,146
146,35
35,147
147,35
35,149
149,35
35,154
154,35
35,157
157,35
35,161
161,35
35,162
162,35
35,163
163,35
35,164
164,35
35,166
166,35
35,171
171,35
35,173
173,35
35,175
175,35
35,177
177,35
35,179
179,35
35,184
184,35
35,189
189,35
35,190
190,35
35,194
194,35
35,195
195,35
35,198
198,35
35,199
199,35
36,39
39,36
36,42
42,36
36,59
59,36
36,61
61,36
36,71
71,36
36,72
72,36
36,75
75,36
36,76
76,36
36,80
80,36
36,81
81,36
36,86
86,36
36,91
91,36
36,93
93,36
36,95
95,36
36,97
97,36
36,99
99,36
36,104
104,36
36,106
106,36
36,107
107,36
36,108
108,36
36,109
109,36
36,113
113,36
36,116
116,36
36,121
121,36
36,123
123,36
36,124
124,36
36,134
134,36
36,137
137,36
36,147
147,36
36,148
148,36
36,150
150,36
36,155
155,36
36,158
158,36
36,162
162,36
36,163
163,36
36,164
164,36
36,165
165,36
36,167
167,36
36,172
172,36
36,174
174,36
36,176
176,36
36,178
178,36
36,180
180,36
36,185
185,36
36,190
190,36
36,191
191,36
36,195
195,36
36,196
196,36
36,199
199,36
36,205
205,36
37,40
40,37
37,43
43,37
37,60
60,37
37,62
62,37
37,72
72,37
37,73
73,37
37,76
76,37
37,77
77,37
37,81
81,37
37,82
82,37
37,87
87,37
37,92
92,37
37,94
94,37
37,96
96,37
37,98
98,37
37,100
100,37
37,105
105,37
37,107
107,37
37,108
108,37
37,109
109,37
37,110
110,37
37,114
114,37
37,117
117,37
37,122
122,37
37,124
124,37
37,125
125,37
37,135
135,37
37,138
138,37
37,148
148,37
37,149
149,37
37,151
151,37
37,156
156,37
37,159
159,37
37,163
163,37
37,164
164,37
37,165
165,37
37,166
166,37
37,168
168,37
37,173
173,37
37,175
175,37
37,177
177,37
37,179
179,37
37,181
181,37
37,186
186,37
37,191
191,37
37,192
192,37
37,196
196,37
37,197
197,37
37,206
206,37
38,41
41,38
38,44
44,38
38,61
61,38
38,63
63,38
38,73
73,38
38,74
74,38
38,77
77,38
38,78
78,38
38,82
82,38
38,83
83,38
38,88
88,38
38,93
93,38
38,95
95,38
38,97
97,38
38,99
99,38
38,101
101,38
38,106
106,38
38,108
108,38
38,109
109,38
38,110
110,38
38,111
111,38
38,115
115,38
38,118
118,38
38,123
123,38
38,125
125,38
38,126
126,38
38,136
136,38
38,139
139,38
38,149
149,38
38,150
150,38
38,152
152,38
38,157
157,38
38,160
160,38
38,164
164,38
38,165
165,38
38,166
166,38
38,167
167,38
38,169
169,38
38,174
174,38
38,176
176,38
38,178
178,38
38,180
180,38
38,182
182,38
38,187
187,38
38,192
192,38
38,193
193,38
38,197
197,38
38,198
198,38
38,201
201,38
38,208
208,38
39,42
42,39
39,45
45,39
39,62
62,39
39,64
64,39
39,74
74,39
39,75
75,39
39,78
78,39
39,79
79,39
39,83
83,39
39,84
84,39
39,89
89,39
39,94
94,39
39,96
96,39
39,98
98,39
39,100
100,39
39,102
102,39
39,107
107,39
39,109
109,39
39,110
110,39
39,111
111,39
39,112
112,39
39,116
116,39
39,119
119,39
39,124
124,39
39,126
126,39
39,127
127,39
39,137
137,39
39,140
140,39
39,150
150,39
39,151
151,39
39,153
153,39
39,158
158,39
39,161
161,39
39,165
165,39
39,166
166,39
39,167
167,39
39,168
168,39
39,170
170,39
39,175
175,39
39,177
177,39
39,179
179,39
39,181
181,39
39,183
183,39
39,188
188,39
39,193
193,39
39,194
194,39
39,198
198,39
39,202
202,39
39,204
204,39
40,43
43,40
40,46
46,40
40,63
63,40
40,65
65,40
40,75
75,40
40,76
76,40
40,79
79,40
40,80
80,40
40,84
84,40
40,85
85,40
40,90
90,40
40,95
95,40
40,97
97,40
40,99
99,40
40,101
101,40
40,103
103,40
40,108
108,40
40,110
110,40
40,111
111,40
40,112
112,40
40,113
113,40
40,117
117,40
40,120
120,40
40,125
125,40
40,127
127,40
40,128
128,40
40,138
138,40
40,141
141,40
40,151
151,40
40,152
152,40
40,154
154,40
40,159
159,40
40,162
162,40
40,166
166,40
40,167
167,40
40,168
168,40
40,169
169,40
40,171
171,40
40,176
176,40
40,178
178,40
40,180
180,40
40,182
182,40
40,184
184,40
40,189
189,40
40,194
194,40
40,195
195,40
40,199
199,40
40,205
205,40
41,44
44,41
41,47
47,41
41,64
64,41
41,66
66,41
41,76
76,41
41,77
77,41
41,80
80,41
41,81
81,41
41,85
85,41
41,86
86,41
41,91
91,41
41,96
96,41
41,98
98,41
41,100
100,41
41,102
102,41
41,104
104,41
41,109
109,41
41,111
111,41
41,112
112,41
41,113
113,41
41,114
114,41
41,118
118,41
41,121
121,41
41,126
126,41
41,128
128,41
41,129
129,41
41,139
139,41
41,142
142,41
41,152
152,41
41,153
153,41
41,155
155,41
41,160
160,41
41,163
163,41
41,167
167,41
41,168
168,41
41,169
169,41
41,170
170,41
41,172
172,41
41,177
177,41
41,179
179,41
41,181
181,41
41,183
183,41
41,185
185,41
41,190
190,41
41,195
195,41
41,196
196,41
41,200
200,41
41,204
204,41
42,45
45,42
42,48
48,42
42,65
65,42
42,67
67,42
42,77
77,42
42,78
78,42
42,81
81,42
42,82
82,42
42,86
86,42
42,87
87,42
42,92
92,42
42,97
97,42
42,99
99,42
42,101
101,42
42,103
103,42
42,105
105,42
42,110
110,42
42,112
112,42
42,113
113,42
42,114
114,42
42,115
115,42
42,119
119,42
42,122
122,42
42,127
127,42
42,129
129,42
42,130
130,42
42,140
140,42
42,143
143,42
42,153
153,42
42,154
154,42
42,156
156,42
42,161
161,42
42,164
164,42
42,168
168,42
42,169
169,42
42,170
170,42
42,171
171,42
42,173
173,42
42,178
178,42
42,180
180,42
42,182
182,42
42,184
184,42
42,186
186,42
42,191
191,42
42,196
196,42
42,197
197,42
42,201
201,42
43,46
46,43
43,49
49,43
43,66
66,43
43,68
68,43
43,78
78,43
43,79
79,43
43,82
82,43
43,83
83,43
43,87
87,43
43,88
88,43
43,93
93,43
43,98
98,43
43,100
100,43
43,102
102,43
43,104
104,43
43,106
106,43
43,111
111,43
43,113
113,43
43,114
114,43
43,115
115,43
43,116
116,43
43,120
120,43
43,123
123,43
43,128
128,43
43,130
130,43
43,131
131,43
43,141
141,43
43,144
144,43
43,154
154,43
43,155
155,43
43,157
157,43
43,162
162,43
43,165
165,43
43,169
169,43
43,170
170,43
43,171
171,43
43,172
172,43
43,174
174,43
43,179
179,43
43,181
181,43
43,183
183,43
43,185
185,43
43,187
187,43
43,192
192,43
43,197
197,43
43,198
198,43
43,200
200,43
43,201
201,43
44,47
47,44
44,50
50,44
44,67
67,44
44,69
69,44
44,79
79,44
44,80
80,44
44,83
83,44
44,84
84,44
44,88
88,44
44,89
89,44
44,94
94,44
44,99
99,44
44,101
101,44
44,103
103,44
44,105
105,44
44,107
107,44
44,112
112,44
44,114
114,44
44,115
115,44
44,116
116,44
44,117
117,44
44,121
121,44
44,124
124,44
44,129
129,44
44,131
131,44
44,132
132,44
44,142
142,44
44,145
145,44
44,155
155,44
44,156
156,44
44,158
158,44
44,163
163,44
44,166
166,44
44,170
170,44
44,171
171,44
44,172
172,44
44,173
173,44
44,175
175,44
44,180
180,44
44,182
182,44
44,184
184,44
44,186
186,44
44,188
188,44
44,193
193,44
44,198
198,44
44,201
201,44
44,202
202,44
45,48
48,45
45,51
51,45
45,68
68,45
45,70
70,45
45,80
80,45
45,81
81,45
45,84
84,45
45,85
85,45
45,89
89,45
45,90
90,45
45,95
95,45
45,100
100,45
45,102
102,45
45,104
104,45
45,106
106,45
45,108
108,45
45,113
113,45
45,115
115,45
45,116
116,45
45,117
117,45
45,118
118,45
45,122
122,45
45,125
125,45
45,130
130,45
45,132
132,45
45,133
133,45
45,143
143,45
45,146
146,45
45,156
156,45
45,157
157,45
45,159
159,45
45,164
164,45
45,167
167,45
45,171
171,45
45,172
172,45
45,173
173,45
45,174
174,45
45,176
176,45
45,181
181,45
45,183
183,45
45,185
185,45
45,187
187,45
45,189
189,45
45,194
194,45
45,200
200,45
45,201
201,45
46,49
49,46
46,52
52,46
46,69
69,46
46,71
71,46
46,81
81,46
46,82
82,46
46,85
85,46
46,86
86,46
46,90
90,46
46,91
91,46
46,96
96,46
46,101
101,46
46,103
103,46
46,105
105,46
46,107
107,46
46,109
109,46
46,114
114,46
46,116
116,46
46,117
117,46
46,118
118,46
46,119
119,46
46,123
123,46
46,126
126,46
46,131
131,46
46,133
133,46
46,134
134,46
46,144
144,46
46,147
147,46
46,157
157,46
46,158
158,46
46,160
160,46
46,165
165,46
46,168
168,46
46,172
172,46
46,173
173,46
46,174
174,46
46,175
175,46
46,177
177,46
46,182
182,46
46,184
184,46
46,186
186,46
46,188
188,46
46,190
190,46
46,195
195,46
46,200
200,46
47,50
50,47
47,53
53,47
47,70
70,47
47,72
72,47
47,82
82,47
47,83
83,47
47,86
86,47
47,87
87,47
47,91
91,47
47,92
92,47
47,97
97,47
47,102
102,47
47,104
104,47
47,106
106,47
47,108
108,47
47,110
110,47
47,115
115,47
47,117
117,47
47,118
118,47
47,119
119,47
47,120
120,47
47,124
124,47
47,127
127,47
47,132
132,47
47,134
134,47
47,135
135,47
47,145
145,47
47,148
148,47
47,158
158,47
47,159
159,47
47,161
161,47
47,166
166,47
47,169
169,47
47,173
173,47
47,174
174,47
47,175
175,47
47,176
176,47
47,178
178,47
47,183
183,47
47,185
185,47
47,187
187,47
47,189
189,47
47,191
191,47
47,196
196,47
47,201
201,47
47,206
206,47
47,207
207,47
48,51
51,48
48,54
54,48
48,71
71,48
48,73
73,48
48,83
83,48
48,84
84,48
48,87
87,48
48,88
88,48
48,92
92,48
48,93
93,48
48,98
98,48
48,103
103,48
48,105
105,48
48,107
107,48
48,109
109,48
48,111
111,48
48,116
116,48
48,118
118,48
48,119
119,48
48,120
120,48
48,121
121,48
48,125
125,48
48,128
128,48
48,133
133,48
48,135
135,48
48,136
136,48
48,146
146,48
48,149
149,48
48,159
159,48
48,160
160,48
48,162
162,48
48,167
167,48
48,170
170,48
48,174
174,48
48,175
175,48
48,176
176,48
48,177
177,48
48,179
179,48
48,184
184,48
48,186
186,48
48,188
188,48
48,190
190,48
48,192
192,48
48,197
197,48
48,199
199,48
48,205
205,48
49,52
52,49
49,55
55,49
49,72
72,49
49,74
74,49
49,84
84,49
49,85
85,49
49,88
88,49
49,89
89,49
49,93
93,49
49,94
94,49
49,99
99,49
49,104
104,49
49,106
106,49
49,108
108,49
49,110
110,49
49,112
112,49
49,117
117,49
49,119
119,49
49,120
120,49
49,121
121,49
49,122
122,49
49,126
126,49
49,129
129,49
49,134
134,49
49,136
136,49
49,137
137,49
49,147
147,49
49,150
150,49
49,160
160,49
49,161
161,49
49,163
163,49
49,168
168,49
49,171
171,49
49,175
175,49
49,176
176,49
49,177
177,49
49,178
178,49
49,180
180,49
49,185
185,49
49,187
187,49
49,189
189,49
49,191
191,49
49,193
193,49
49,198
198,49
49,202
202,49
49,206
206,49
50,53
53,50
50,56
56,50
50,73
73,50
50,75
75,50
50,85
85,50
50,86
86,50
50,89
89,50
50,90
90,50
50,94
94,50
50,95
95,50
50,100
100,50
50,105
105,50
50,107
107,50
50,109
109,50
50,111
111,50
50,113
113,50
50,118
118,50
50,120
120,50
50,121
121,50
50,122
122,50
50,123
123,50
50,127
127,50
50,130
130,50
50,135
135,50
50,137
137,50
50,138
138,50
50,148
148,50
50,151
151,50
50,161
161,50
50,162
162,50
50,164
164,50
50,169
169,50
50,172
172,50
50,176
176,50
50,177
177,50
50,178
178,50
50,179
179,50
50,181
181,50
50,186
186,50
50,188
188,50
50,190
190,50
50,192
192,50
50,194
194,50
50,199
199,50
50,200
200,50
50,203
203,50
50,205
205,50
51,54
54,51
51,57
57,51
51,74
74,51
51,76
76,51
51,86
86,51
51,87
87,51
51,90
90,51
51,91
91,51
51,95
95,51
51,96
96,51
51,101
101,51
51,106
106,51
51,108
108,51
51,110
110,51
51,112
112,51
51,114
114,51
51,119
119,51
51,121
121,51
51,122
122,51
51,123
123,51
51,124
124,51
51,128
128,51
51,131
131,51
51,136
136,51
51,138
138,51
51,139
139,51
51,149
149,51
51,152
152,51
51,162
162,51
51,163
163,51
51,165
165,51
51,170
170,51
51,173
173,51
51,177
177,51
51,178
178,51
51,179
179,51
51,180
180,51
51,182
182,51
51,187
187,51
51,189
189,51
51,191
191,51
51,193
193,51
51,195
195,51
51,199
199,51
52,55
55,52
52,58
58,52
52,75
75,52
52,77
77,52
52,87
87,52
52,88
88,52
52,91
91,52
52,92
92,52
52,96
96,52
52,97
97,52
52,102
102,52
52,107
107,52
52,109
109,52
52,111
111,52
52,113
113,52
52,115
115,52
52,120
120,52
52,122
122,52
52,123
123,52
52,124
124,52
52,125
125,52
52,129
129,52
52,132
132,52
52,137
137,52
52,139
139,52
52,140
140,52
52,150
150,52
52,153
153,52
52,163
163,52
52,164
164,52
52,166
166,52
52,171
171,52
52,174
174,52
52,178
178,52
52,179
179,52
52,180
180,52
52,181
181,52
52,183
183,52
52,188
188,52
52,190
190,52
52,192
192,52
52,194
194,52
52,196
196,52
52,201
201,52
53,56
56,53
53,59
59,53
53,76
76,53
53,78
78,53
53,88
88,53
53,89
89,53
53,92
92,53
53,93
93,53
53,97
97,53
53,98
98,53
53,103
103,53
53,108
108,53
53,110
110,53
53,112
112,53
53,114
114,53
53,116
116,53
53,121
121,53
53,123
123,53
53,124
124,53
53,125
125,53
53,126
126,53
53,130
130,53
53,133
133,53
53,138
138,53
53,140
140,53
53,141
141,53
53,151
151,53
53,154
154,53
53,164
164,53
53,165
165,53
53,167
167,53
53,172
172,53
53,175
175,53
53,179
179,53
53,180
180,53
53,181
181,53
53,182
182,53
53,184
184,53
53,189
189,53
53,191
191,53
53,193
193,53
53,195
195,53
53,197
197,53
53,200
200,53
53,207
207,53
53,208
208,53
54,57
57,54
54,60
60,54
54,77
77,54
54,79
79,54
54,89
89,54
54,90
90,54
54,93
93,54
54,94
94,54
54,98
98,54
54,99
99,54
54,104
104,54
54,109
109,54
54,111
111,54
54,113
113,54
54,115
115,54
54,117
117,54
54,122
122,54
54,124
124,54
54,125
125,54
54,126
126,54
54,127
127,54
54,131
131,54
54,134
134,54
54,139
139,54
54,141
141,54
54,142
142,54
54,152
152,54
54,155
155,54
54,165
165,54
54,166
166,54
54,168
168,54
54,173
173,54
54,176
176,54
54,180
180,54
54,181
181,54
54,182
182,54
54,183
183,54
54,185
185,54
54,190
190,54
54,192
192,54
54,194
194,54
54,196
196,54
54,198
198,54
54,201
201,54
55,58
58,55
55,61
61,55
55,78
78,55
55,80
80,55
55,90
90,55
55,91
91,55
55,94
94,55
55,95
95,55
55,99
99,55
55,100
100,55
55,105
105,55
55,110
110,55
55,112
112,55
55,114
114,55
55,116
116,55
55,118
118,55
55,123
123,55
55,125
125,55
55,126
126,55
55,127
127,55
55,128
128,55
55,132
132,55
55,135
135,55
55,140
140,55
55,142
142,55
55,143
143,55
55,153
153,55
55,156
156,55
55,166
166,55
55,167
167,55
55,169
169,55
55,174
174,55
55,177
177,55
55,181
181,55
55,182
182,55
55,183
183,55
55,184
184,55
55,186
186,55
55,191
191,55
55,193
193,55
55,195
195,55
55,197
197,55
56,59
59,56
56,62
62,56
56,79
79,56
56,81
81,56
56,91
91,56
56,92
92,56
56,95
95,56
56,96
96,56
56,100
100,56
56,101
101,56
56,106
106,56
56,111
111,56
56,113
113,56
56,115
115,56
56,117
117,56
56,119
119,56
56,124
124,56
56,126
126,56
56,127
127,56
56,128
128,56
56,129
129,56
56,133
133,56
56,136
136,56
56,141
141,56
56,143
143,56
56,144
144,56
56,154
154,56
56,157
157,56
56,167
167,56
56,168
168,56
56,170
170,56
56,175
175,56
56,178
178,56
56,182
182,56
56,183
183,56
56,184
184,56
56,185
185,56
56,187
187,56
56,192
192,56
56,194
194,56
56,196
196,56
56,198
198,56
56,201
201,56
57,60
60,57
57,63
63,57
57,80
80,57
57,82
82,57
57,92
92,57
57,93
93,57
57,96
96,57
57,97
97,57
57,101
101,57
57,102
102,57
57,107
107,57
57,112
112,57
57,114
114,57
57,116
116,57
57,118
118,57
57,120
120,57
57,125
125,57
57,127
127,57
57,128
128,57
57,129
129,57
57,130
130,57
57,134
134,57
57,137
137,57
57,142
142,57
57,144
144,57
57,145
145,57
57,155
155,57
57,158
158,57
57,168
168,57
57,169
169,57
57,171
171,57
57,176
176,57
57,179
179,57
57,183
183,57
57,184
184,57
57,185
185,57
57,186
186,57
57,188
188,57
57,193
193,57
57,195
195,57
57,197
197,57
57,205
205,57
58,61
61,58
58,64
64,58
58,81
81,58
58,83
83,58
58,93
93,58
58,94
94,58
58,97
97,58
58,98
98,58
58,102
102,58
58,103
103,58
58,108
108,58
58,113
113,58
58,115
115,58
58,117
117,58
58,119
119,58
58,121
121,58
58,126
126,58
58,128
128,58
58,129
129,58
58,130
130,58
58,131
131,58
58,135
135,58
58,138
138,58
58,143
143,58
58,145
145,58
58,146
146,58
58,156
156,58
58,159
159,58
58,169
169,58
58,170
170,58
58,172
172,58
58,177
177,58
58,180
180,58
58,184
184,58
58,185
185,58
58,186
186,58
58,187
187,58
58,189
189,58
58,194
194,58
58,196
196,58
58,198
198,58
58,200
200,58
58,201
201,58
59,62
62,59
59,65
65,59
59,82
82,59
59,84
84,59
59,94
94,59
59,95
95,59
59,98
98,59
59,99
99,59
59,103
103,59
59,104
104,59
59,109
109,59
59,114
114,59
59,116
116,59
59,118
118,59
59,120
120,59
59,122
122,59
59,127
127,59
59,129
129,59
59,130
130,59
59,131
131,59
59,132
132,59
59,136
136,59
59,139
139,59
59,144
144,59
59,146
146,59
59,147
147,59
59,157
157,59
59,160
160,59
59,170
170,59
59,171
171,59
59,173
173,59
59,178
178,59
59,181
181,59
59,185
185,59
59,186
186,59
59,187
187,59
59,188
188,59
59,190
190,59
59,195
195,59
59,197
197,59
59,208
208,59
60,63
63,60
60,66
66,60
60,83
83,60
60,85
85,60
60,95
95,60
60,96
96,60
60,99
99,60
60,100
100,60
60,104
104,60
60,105
105,60
60,110
110,60
60,115
115,60
60,117
117,60
60,119
119,60
60,121
121,60
60,123
123,60
60,128
128,60
60,130
130,60
60,131
131,60
60,132
132,60
60,133
133,60
60,137
137,60
60,140
140,60
60,145
145,60
60,147
147,60
60,148
148,60
60,158
158,60
60,161
161,60
60,171
171,60
60,172
172,60
60,174
174,60
60,179
179,60
60,182
182,60
60,186
186,60
60,187
187,60
60,188
188,60
60,189
189,60
60,191
191,60
60,196
196,60
60,198
198,60
60,200
200,60
60,201
201,60
61,64
64,61
61,67
67,61
61,84
84,61
61,86
86,61
61,96
96,61
61,97
97,61
61,100
100,61
61,101
101,61
61,105
105,61
61,106
106,61
61,111
111,61
61,116
116,61
61,118
118,61
61,120
120,61
61,122
122,61
61,124
124,61
61,129
129,61
61,131
131,61
61,132
132,61
61,133
133,61
61,134
134,61
61,138
138,61
61,141
141,61
61,146
146,61
61,148
148,61
61,149
149,61
61,159
159,61
61,162
162,61
61,172
172,61
61,173
173,61
61,175
175,61
61,180
180,61
61,183
183,61
61,187
187,61
61,188
188,61
61,189
189,61
61,190
190,61
61,192
192,61
61,197
197,61
61,199
199,61
61,207
207,61
62,65
65,62
62,68
68,62
62,85
85,62
62,87
87,62
62,97
97,62
62,98
98,62
62,101
101,62
62,102
102,62
62,106
106,62
62,107
107,62
62,112
112,62
62,117
117,62
62,119
119,62
62,121
121,62
62,123
123,62
62,125
125,62
62,130
130,62
62,132
132,62
62,133
133,62
62,134
134,62
62,135
135,62
62,139
139,62
62,142
142,62
62,147
147,62
62,149
149,62
62,150
150,62
62,160
160,62
62,163
163,62
62,173
173,62
62,174
174,62
62,176
176,62
62,181
181,62
62,184
184,62
62,188
188,62
62,189
189,62
62,190
190,62
62,191
191,62
62,193
193,62
62,198
198,62
62,206
206,62
63,66
66,63
63,69
69,63
63,86
86,63
63,88
88,63
63,98
98,63
63,99
99,63
63,102
102,63
63,103
103,63
63,107
107,63
63,108
108,63
63,113
113,63
63,118
118,63
63,120
120,63
63,122
122,63
63,124
124,63
63,126
126,63
63,131
131,63
63,133
133,63
63,134
134,63
63,135
135,63
63,136
136,63
63,140
140,63
63,143
143,63
63,148
148,63
63,150
150,63
63,151
151,63
63,161
161,63
63,164
164,63
63,174
174,63
63,175
175,63
63,177
177,63
63,182
182,63
63,185
185,63
63,189
189,63
63,190
190,63
63,191
191,63
63,192
192,63
63,194
194,63
63,206
206,63
64,67
67,64
64,70
70,64
64,87
87,64
64,89
89,64
64,99
99,64
64,100
100,64
64,103
103,64
64,104
104,64
64,108
108,64
64,109
109,64
64,114
114,64
64,119
119,64
64,121
121,64
64,123
123,64
64,125
125,64
64,127
127,64
64,132
132,64
64,134
134,64
64,135
135,64
64,136
136,64
64,137
137,64
64,141
141,64
64,144
144,64
64,149
149,64
64,151
151,64
64,152
152,64
64,162
162,64
64,165
165,64
64,175
175,64
64,176
176,64
64,178
178,64
64,183
183,64
64,186
186,64
64,190
190,64
64,191
191,64
64,192
192,64
64,193
193,64
64,195
195,64
64,199
199,64
64,202
202,64
65,68
68,65
65,71
71,65
65,88
88,65
65,90
90,65
65,100
100,65
65,101
101,65
65,104
104,65
65,105
105,65
65,109
109,65
65,110
110,65
65,115
115,65
65,120
120,65
65,122
122,65
65,124
124,65
65,126
126,65
65,128
128,65
65,133
133,65
65,135
135,65
65,136
136,65
65,137
137,65
65,138
138,65
65,142
142,65
65,145
145,65
65,150
150,65
65,152
152,65
65,153
153,65
65,163
163,65
65,166
166,65
65,176
176,65
65,177
177,65
65,179
179,65
65,184
184,65
65,187
187,65
65,191
191,65
65,192
192,65
65,193
193,65
65,194
194,65
65,196
196,65
65,201
201,65
65,205
205,65
66,69
69,66
66,72
72,66
66,89
89,66
66,91
91,66
66,101
101,66
66,102
102,66
66,105
105,66
66,106
106,66
66,110
110,66
66,111
111,66
66,116
116,66
66,121
121,66
66,123
123,66
66,125
125,66
66,127
127,66
66,129
129,66
66,134
134,66
66,136
136,66
66,137
137,66
66,138
138,66
66,139
139,66
66,143
143,66
66,146
146,66
66,151
151,66
66,153
153,66
66,154
154,66
66,164
164,66
66,167
167,66
66,177
177,66
66,178
178,66
66,180
180,66
66,185
185,66
66,188
188,66
66,192
192,66
66,193
193,66
66,194
194,66
66,195
195,66
66,197
197,66
66,202
202,66
67,70
70,67
67,73
73,67
67,90
90,67
67,92
92,67
67,102
102,67
67,103
103,67
67,106
106,67
67,107
107,67
67,111
111,67
67,112
112,67
67,117
117,67
67,122
122,67
67,124
124,67
67,126
126,67
67,128
128,67
67,130
130,67
67,135
135,67
67,137
137,67
67,138
138,67
67,139
139,67
67,140
140,67
67,144
144,67
67,147
147,67
67,152
152,67
67,154
154,67
67,155
155,67
67,165
165,67
67,168
168,67
67,178
178,67
67,179
179,67
67,181
181,67
67,186
186,67
67,189
189,67
67,193
193,67
67,194
194,67
67,195
195,67
67,196
196,67
67,198
198,67
67,204
204,67
67,208
208,67
68,71
71,68
68,74
74,68
68,91
91,68
68,93
93,68
68,103
103,68
68,104
104,68
68,107
107,68
68,108
108,68
68,112
112,68
68,113
113,68
68,118
118,68
68,123
123,68
68,125
125,68
68,127
127,68
68,129
129,68
68,131
131,68
68,136
136,68
68,138
138,68
68,139
139,68
68,140
140,68
68,141
141,68
68,145
145,68
68,148
148,68
68,153
153,68
68,155
155,68
68,156
156,68
68,166
166,68
68,169
169,68
68,179
179,68
68,180
180,68
68,182
182,68
68,187
187,68
68,190
190,68
68,194
194,68
68,195
195,68
68,196
196,68
68,197
197,68
68,206
206,68
69,72
72,69
69,75
75,69
69,92
92,69
69,94
94,69
69,104
104,69
69,105
105,69
69,108
108,69
69,109
109,69
69,113
113,69
69,114
114,69
69,119
119,69
69,124
124,69
69,126
126,69
69,128
128,69
69,130
130,69
69,132
132,69
69,137
137,69
69,139
139,69
69,140
140,69
69,141
141,69
69,142
142,69
69,146
146,69
69,149
149,69
69,154
154,69
69,156
156,69
69,157
157,69
69,167
167,69
69,170
170,69
69,180
180,69
69,181
181,69
69,183
183,69
69,188
188,69
69,191
191,69
69,195
195,69
69,196
196,69
69,197
197,69
69,198
198,69
70,73
73,70
70,76
76,70
70,93
93,70
70,95
95,70
70,105
105,70
70,106
106,70
70,109
109,70
70,110
110,70
70,114
114,70
70,115
115,70
70,120
120,70
70,125
125,70
70,127
127,70
70,129
129,70
70,131
131,70
70,133
133,70
70,138
138,70
70,140
140,70
70,141
141,70
70,142
142,70
70,143
143,70
70,147
147,70
70,150
150,70
70,155
155,70
70,157
157,70
70,158
158,70
70,168
168,70
70,171
171,70
70,181
181,70
70,182
182,70
70,184
184,70
70,189
189,70
70,192
192,70
70,196
196,70
70,197
197,70
70,198
198,70
70,201
201,70
70,208
208,70
71,74
74,71
71,77
77,71
71,94
94,71
71,96
96,71
71,106
106,71
71,107
107,71
71,110
110,71
71,111
111,71
71,115
115,71
71,116
116,71
71,121
121,71
71,126
126,71
71,128
128,71
71,130
130,71
71,132
132,71
71,134
134,71
71,139
139,71
71,141
141,71
71,142
142,71
71,143
143,71
71,144
144,71
71,148
148,71
71,151
151,71
71,156
156,71
71,158
158,71
71,159
159,71
71,169
169,71
71,172
172,71
71,182
182,71
71,183
183,71
71,185
185,71
71,190
190,71
71,193
193,71
71,197
197,71
71,198
198,71
71,200
200,71
71,201
201,71
72,75
75,72
72,78
78,72
72,95
95,72
72,97
97,72
72,107
107,72
72,108
108,72
72,111
111,72
72,112
112,72
72,116
116,72
72,117
117,72
72,122
122,72
72,127
127,72
72,129
129,72
72,131
131,72
72,133
133,72
72,135
135,72
72,140
140,72
72,142
142,72
72,143
143,72
72,144
144,72
72,145
145,72
72,149
149,72
72,152
152,72
72,157
157,72
72,159
159,72
72,160
160,72
72,170
170,72
72,173
173,72
72,183
183,72
72,184
184,72
72,186
186,72
72,191
191,72
72,194
194,72
72,198
198,72
72,203
203,72
73,76
76,73
73,79
79,73
73,96
96,73
73,98
98,73
73,108
108,73
73,109
109,73
73,112
112,73
73,113
113,73
73,117
117,73
73,118
118,73
73,123
123,73
73,128
128,73
73,130
130,73
73,132
132,73
73,134
134,73
73,136
136,73
73,141
141,73
73,143
143,73
73,144
144,73
73,145
145,73
73,146
146,73
73,150
150,73
73,153
153,73
73,158
158,73
73,160
160,73
73,161
161,73
73,171
171,73
73,174
174,73
73,184
184,73
73,185
185,73
73,187
187,73
73,192
192,73
73,195
195,73
73,206
206,73
74,77
77,74
74,80
80,74
74,97
97,74
74,99
99,74
74,109
109,74
74,110
110,74
74,113
113,74
74,114
114,74
74,118
118,74
74,119
119,74
74,124
124,74
74,129
129,74
74,131
131,74
74,133
133,74
74,135
135,74
74,137
137,74
74,142
142,74
74,144
144,74
74,145
145,74
74,146
146,74
74,147
147,74
74,151
151,74
74,154
154,74
74,159
159,74
74,161
161,74
74,162
162,74
74,172
172,74
74,175
175,74
74,185
185,74
74,186
186,74
74,188
188,74
74,193
193,74
74,196
196,74
74,199
199,74
74,200
200,74
74,205
205,74
75,78
78,75
75,81
81,75
75,98
98,75
75,100
100,75
75,110
110,75
75,111
111,75
75,114
114,75
75,115
115,75
75,119
119,75
75,120
120,75
75,125
125,75
75,130
130,75
75,132
132,75
75,134
134,75
75,136
136,75
75,138
138,75
75,143
143,75
75,145
145,75
75,146
146,75
75,147
147,75
75,148
148,75
75,152
152,75
75,155
155,75
75,160
160,75
75,162
162,75
75,163
163,75
75,173
173,75
75,176
176,75
75,186
186,75
75,187
187,75
75,189
189,75
75,194
194,75
75,197
197,75
75,199
199,75
75,201
201,75
76,79
79,76
76,82
82,76
76,99
99,76
76,101
101,76
76,111
111,76
76,112
112,76
76,115
115,76
76,116
116,76
76,120
120,76
76,121
121,76
76,126
126,76
76,131
131,76
76,133
133,76
76,135
135,76
76,137
137,76
76,139
139,76
76,144
144,76
76,146
146,76
76,147
147,76
76,148
148,76
76,149
149,76
76,153
153,76
76,156
156,76
76,161
161,76
76,163
163,76
76,164
164,76
76,174
174,76
76,177
177,76
76,187
187,76
76,188
188,76
76,190
190,76
76,195
195,76
76,198
198,76
76,201
201,76
76,205
205,76
77,80
80,77
77,83
83,77
77,100
100,77
77,102
102,77
77,112
112,77
77,113
113,77
77,116
116,77
77,117
117,77
77,121
121,77
77,122
122,77
77,127
127,77
77,132
132,77
77,134
134,77
77,136
136,77
77,138
138,77
77,140
140,77
77,145
145,77
77,147
147,77
77,148
148,77
77,149
149,77
77,150
150,77
77,154
154,77
77,157
157,77
77,162
162,77
77,164
164,77
77,165
165,77
77,175
175,77
77,178
178,77
77,188
188,77
77,189
189,77
77,191
191,77
77,196
196,77
77,199
199,77
77,207
207,77
78,81
81,78
78,84
84,78
78,101
101,78
78,103
103,78
78,113
113,78
78,114
114,78
78,117
117,78
78,118
118,78
78,122
122,78
78,123
123,78
78,128
128,78
78,133
133,78
78,135
135,78
78,137
137,78
78,139
139,78
78,141
141,78
78,146
146,78
78,148
148,78
78,149
149,78
78,150
150,78
78,151
151,78
78,155
155,78
78,158
158,78
78,163
163,78
78,165
165,78
78,166
166,78
78,176
176,78
78,179
179,78
78,189
189,78
78,190
190,78
78,192
192,78
78,197
197,78
78,206
206,78
78,207
207,78
79,82
82,79
79,85
85,79
79,102
102,79
79,104
104,79
79,114
114,79
79,115
115,79
79,118
118,79
79,119
119,79
79,123
123,79
79,124
124,79
79,129
129,79
79,134
134,79
79,136
136,79
79,138
138,79
79,140
140,79
79,142
142,79
79,147
147,79
79,149
149,79
79,150
150,79
79,151
151,79
79,152
152,79
79,156
156,79
79,159
159,79
79,164
164,79
79,166
166,79
79,167
167,79
79,177
177,79
79,180
180,79
79,190
190,79
79,191
191,79
79,193
193,79
79,198
198,79
79,201
201,79
79,206
206,79
80,83
83,80
80,86
86,80
80,103
103,80
80,105
105,80
80,115
115,80
80,116
116,80
80,119
119,80
80,120
120,80
80,124
124,80
80,125
125,80
80,130
130,80
80,135
135,80
80,137
137,80
80,139
139,80
80,141
141,80
80,143
143,80
80,148
148,80
80,150
150,80
80,151
151,80
80,152
152,80
80,153
153,80
80,157
157,80
80,160
160,80
80,165
165,80
80,167
167,80
80,168
168,80
80,178
178,80
80,181
181,80
80,191
191,80
80,192
192,80
80,194
194,80
80,201
201,80
80,206
206,80
80,208
208,80
81,84
84,81
81,87
87,81
81,104
104,81
81,106
106,81
81,116
116,81
81,117
117,81
81,120
120,81
81,121
121,81
81,125
125,81
81,126
126,81
81,131
131,81
81,136
136,81
81,138
138,81
81,140
140,81
81,142
142,81
81,144
144,81
81,149
149,81
81,151
151,81
81,152
152,81
81,153
153,81
81,154
154,81
81,158
158,81
81,161
161,81
81,166
166,81
81,168
168,81
81,169
169,81
81,179
179,81
81,182
182,81
81,192
192,81
81,193
193,81
81,195
195,81
81,208
208,81
82,85
85,82
82,88
88,82
82,105
105,82
82,107
107,82
82,117
117,82
82,118
118,82
82,121
121,82
82,122
122,82
82,126
126,82
82,127
127,82
82,132
132,82
82,137
137,82
82,139
139,82
82,141
141,82
82,143
143,82
82,145
145,82
82,150
150,82
82,152
152,82
82,153
153,82
82,154
154,82
82,155
155,82
82,159
159,82
82,162
162,82
82,167
167,82
82,169
169,82
82,170
170,82
82,180
180,82
82,183
183,82
82,193
193,82
82,194
194,82
82,196
196,82
82,199
199,82
82,203
203,82
83,86
86,83
83,89
89,83
83,106
106,83
83,108
108,83
83,118
118,83
83,119
119,83
83,122
122,83
83,123
123,83
83,127
127,83
83,128
128,83
83,133
133,83
83,138
138,83
83,140
140,83
83,142
142,83
83,144
144,83
83,146
146,83
83,151
151,83
83,153
153,83
83,154
154,83
83,155
155,83
83,156
156,83
83,160
160,83
83,163
163,83
83,168
168,83
83,170
170,83
83,171
171,83
83,181
181,83
83,184
184,83
83,194
194,83
83,195
195,83
83,197
197,83
83,202
202,83
83,203
203,83
84,87
87,84
84,90
90,84
84,107
107,84
84,109
109,84
84,119
119,84
84,120
120,84
84,123
123,84
84,124
124,84
84,128
128,84
84,129
129,84
84,134
134,84
84,139
139,84
84,141
141,84
84,143
143,84
84,145
145,84
84,147
147,84
84,152
152,84
84,154
154,84
84,155
155,84
84,156
156,84
84,157
157,84
84,161
161,84
84,164
164,84
84,169
169,84
84,171
171,84
84,172
172,84
84,182
182,84
84,185
185,84
84,195
195,84
84,196
196,84
84,198
198,84
84,200
200,84
84,205
205,84
85,88
88,85
85,91
91,85
85,108
108,85
85,110
110,85
85,120
120,85
85,121
121,85
85,124
124,85
85,125
125,85
85,129
129,85
85,130
130,85
85,135
135,85
85,140
140,85
85,142
142,85
85,144
144,85
85,146
146,85
85,148
148,85
85,153
153,85
85,155
155,85
85,156
156,85
85,157
157,85
85,158
158,85
85,162
162,85
85,165
165,85
85,170
170,85
85,172
172,85
85,173
173,85
85,183
183,85
85,186
186,85
85,196
196,85
85,197
197,85
85,199
199,85
85,207
207,85
85,208
208,85
86,89
89,86
86,92
92,86
86,109
109,86
86,111
111,86
86,121
121,86
86,122
122,86
86,125
125,86
86,126
126,86
86,130
130,86
86,131
131,86
86,136
136,86
86,141
141,86
86,143
143,86
86,145
145,86
86,147
147,86
86,149
149,86
86,154
154,86
86,156
156,86
86,157
157,86
86,158
158,86
86,159
159,86
86,163
163,86
86,166
166,86
86,171
171,86
86,173
173,86
86,174
174,86
86,184
184,86
86,187
187,86
86,197
197,86
86,198
198,86
86,202
202,86
86,208
208,86
87,90
90,87
87,93
93,87
87,110
110,87
87,112
112,87
87,122
122,87
87,123
123,87
87,126
126,87
87,127
127,87
87,131
131,87
87,132
132,87
87,137
137,87
87,142
142,87
87,144
144,87
87,146
146,87
87,148
148,87
87,150
150,87
87,155
155,87
87,157
157,87
87,158
158,87
87,159
159,87
87,160
160,87
87,164
164,87
87,167
167,87
87,172
172,87
87,174
174,87
87,175
175,87
87,185
185,87
87,188
188,87
87,198
198,87
87,200
200,87
87,207
207,87
87,208
208,87
88,91
91,88
88,94
94,88
88,111
111,88
88,113
113,88
88,123
123,88
88,124
124,88
88,127
127,88
88,128
128,88
88,132
132,88
88,133
133,88
88,138
138,88
88,143
143,88
88,145
145,88
88,147
147,88
88,149
149,88
88,151
151,88
88,156
156,88
88,158
158,88
88,159
159,88
88,160
160,88
88,161
161,88
88,165
165,88
88,168
168,88
88,173
173,88
88,175
175,88
88,176
176,88
88,186
186,88
88,189
189,88
88,205
205,88
89,92
92,89
89,95
95,89
89,112
112,89
89,114
114,89
89,124
124,89
89,125
125,89
89,128
128,89
89,129
129,89
89,133
133,89
89,134
134,89
89,139
139,89
89,144
144,89
89,146
146,89
89,148
148,89
89,150
150,89
89,152
152,89
89,157
157,89
89,159
159,89
89,160
160,89
89,161
161,89
89,162
162,89
89,166
166,89
89,169
169,89
89,174
174,89
89,176
176,89
89,177
177,89
89,187
187,89
89,190
190,89
89,199
199,89
89,204
204,89
89,206
206,89
90,93
93,90
90,96
96,90
90,113
113,90
90,115
115,90
90,125
125,90
90,126
126,90
90,129
129,90
90,130
130,90
90,134
134,90
90,135
135,90
90,140
140,90
90,145
145,90
90,147
147,90
90,149
149,90
90,151
151,90
90,153
153,90
90,158
158,90
90,160
160,90
90,161
161,90
90,162
162,90
90,163
163,90
90,167
167,90
90,170
170,90
90,175
175,90
90,177
177,90
90,178
178,90
90,188
188,90
90,191
191,90
90,199
199,90
90,201
201,90
90,207
207,90
91,94
94,91
91,97
97,91
91,114
114,91
91,116
116,91
91,126
126,91
91,127
127,91
91,130
130,91
91,131
131,91
91,135
135,91
91,136
136,91
91,141
141,91
91,146
146,91
91,148
148,91
91,150
150,91
91,152
152,91
91,154
154,91
91,159
159,91
91,161
161,91
91,162
162,91
91,163
163,91
91,164
164,91
91,168
168,91
91,171
171,91
91,176
176,91
91,178
178,91
91,179
179,91
91,189
189,91
91,192
192,91
91,199
199,91
91,203
203,91
92,95
95,92
92,98
98,92
92,115
115,92
92,117
117,92
92,127
127,92
92,128
128,92
92,131
131,92
92,132
132,92
92,136
136,92
92,137
137,92
92,142
142,92
92,147
147,92
92,149
149,92
92,151
151,92
92,153
153,92
92,155
155,92
92,160
160,92
92,162
162,92
92,163
163,92
92,164
164,92
92,165
165,92
92,169
169,92
92,172
172,92
92,177
177,92
92,179
179,92
92,180
180,92
92,190
190,92
92,193
193,92
92,199
199,92
92,200
200,92
93,96
96,93
93,99
99,93
93,116
116,93
93,118
118,93
93,128
128,93
93,129
129,93
93,132
132,93
93,133
133,93
93,137
137,93
93,138
138,93
93,143
143,93
93,148
148,93
93,150
150,93
93,152
152,93
93,154
154,93
93,156
156,93
93,161
161,93
93,163
163,93
93,164
164,93
93,165
165,93
93,166
166,93
93,170
170,93
93,173
173,93
93,178
178,93
93,180
180,93
93,181
181,93
93,191
191,93
93,194
194,93
93,205
205,93
94,97
97,94
94,100
100,94
94,117
117,94
94,119
119,94
94,129
129,94
94,130
130,94
94,133
133,94
94,134
134,94
94,138
138,94
94,139
139,94
94,144
144,94
94,149
149,94
94,151
151,94
94,153
153,94
94,155
155,94
94,157
157,94
94,162
162,94
94,164
164,94
94,165
165,94
94,166
166,94
94,167
167,94
94,171
171,94
94,174
174,94
94,179
179,94
94,181
181,94
94,182
182,94
94,192
192,94
94,195
195,94
94,199
199,94
94,207
207,94
94,208
208,94
95,98
98,95
95,101
101,95
95,118
118,95
95,120
120,95
95,130
130,95
95,131
131,95
95,134
134,95
95,135
135,95
95,139
139,95
95,140
140,95
95,145
145,95
95,150
150,95
95,152
152,95
95,154
154,95
95,156
156,95
95,158
158,95
95,163
163,95
95,165
165,95
95,166
166,95
95,167
167,95
95,168
168,95
95,172
172,95
95,175
175,95
95,180
180,95
95,182
182,95
95,183
183,95
95,193
193,95
95,196
196,95
95,200
200,95
95,207
207,95
96,99
99,96
96,102
102,96
96,119
119,96
96,121
121,96
96,131
131,96
96,132
132,96
96,135
135,96
96,136
136,96
96,140
140,96
96,141
141,96
96,146
146,96
96,151
151,96
96,153
153,96
96,155
155,96
96,157
157,96
96,159
159,96
96,164
164,96
96,166
166,96
96,167
167,96
96,168
168,96
96,169
169,96
96,173
173,96
96,176
176,96
96,181
181,96
96,183
183,96
96,184
184,96
96,194
194,96
96,197
197,96
96,207
207,96
96,208
208,96
97,100
100,97
97,103
103,97
97,120
120,97
97,122
122,97
97,132
132,97
97,133
133,97
97,136
136,97
97,137
137,97
97,141
141,97
97,142
142,97
97,147
147,97
97,152
152,97
97,154
154,97
97,156
156,97
97,158
158,97
97,160
160,97
97,165
165,97
97,167
167,97
97,168
168,97
97,169
169,97
97,170
170,97
97,174
174,97
97,177
177,97
97,182
182,97
97,184
184,97
97,185
185,97
97,195
195,97
97,198
198,97
97,203
203,97
98,101
101,98
98,104
104,98
98,121
121,98
98,123
123,98
98,133
133,98
98,134
134,98
98,137
137,98
98,138
138,98
98,142
142,98
98,143
143,98
98,148
148,98
98,153
153,98
98,155
155,98
98,157
157,98
98,159
159,98
98,161
161,98
98,166
166,98
98,168
168,98
98,169
169,98
98,170
170,98
98,171
171,98
98,175
175,98
98,178
178,98
98,183
183,98
98,185
185,98
98,186
186,98
98,196
196,98
99,102
102,99
99,105
105,99
99,122
122,99
99,124
124,99
99,134
134,99
99,135
135,99
99,138
138,99
99,139
139,99
99,143
143,99
99,144
144,99
99,149
149,99
99,154
154,99
99,156
156,99
99,158
158,99
99,160
160,99
99,162
162,99
99,167
167,99
99,169
169,99
99,170
170,99
99,171
171,99
99,172
172,99
99,176
176,99
99,179
179,99
99,184
184,99
99,186
186,99
99,187
187,99
99,197
197,99
99,199
199,99
99,204
204,99
100,103
103,100
100,106
106,100
100,123
123,100
100,125
125,100
100,135
135,100
100,136
136,100
100,139
139,100
100,140
140,100
100,144
144,100
100,145
145,100
100,150
150,100
100,155
155,100
100,157
157,100
100,159
159,100
100,161
161,100
100,163
163,100
100,168
168,100
100,170
170,100
100,171
171,100
100,172
172,100
100,173
173,100
100,177
177,100
100,180
180,100
100,185
185,100
100,187
187,100
100,188
188,100
100,198
198,100
100,200
200,100
101,104
104,101
101,107
107,101
101,124
124,101
101,126
126,101
101,136
136,101
101,137
137,101
101,140
140,101
101,141
141,101
101,145
145,101
101,146
146,101
101,151
151,101
101,156
156,101
101,158
158,101
101,160
160,101
101,162
162,101
101,164
164,101
101,169
169,101
101,171
171,101
101,172
172,101
101,173
173,101
101,174
174,101
101,178
178,101
101,181
181,101
101,186
186,101
101,188
188,101
101,189
189,101
101,199
199,101
101,200
200,101
101,208
208,101
102,105
105,102
102,108
108,102
102,125
125,102
102,127
127,102
102,137
137,102
102,138
138,102
102,141
141,102
102,142
142,102
102,146
146,102
102,147
147,102
102,152
152,102
102,157
157,102
102,159
159,102
102,161
161,102
102,163
163,102
102,165
165,102
102,170
170,102
102,172
172,102
102,173
173,102
102,174
174,102
102,175
175,102
102,179
179,102
102,182
182,102
102,187
187,102
102,189
189,102
102,190
190,102
102,200
200,102
102,206
206,102
102,208
208,102
103,106
106,103
103,109
109,103
103,126
126,103
103,128
128,103
103,138
138,103
103,139
139,103
103,142
142,103
103,143
143,103
103,147
147,103
103,148
148,103
103,153
153,103
103,158
158,103
103,160
160,103
103,162
162,103
103,164
164,103
103,166
166,103
103,171
171,103
103,173
173,103
103,174
174,103
103,175
175,103
103,176
176,103
103,180
180,103
103,183
183,103
103,188
188,103
103,190
190,103
103,191
191,103
103,199
199,103
104,107
107,104
104,110
110,104
104,127
127,104
104,129
129,104
104,139
139,104
104,140
140,104
104,143
143,104
104,144
144,104
104,148
148,104
104,149
149,104
104,154
154,104
104,159
159,104
104,161
161,104
104,163
163,104
104,165
165,104
104,167
167,104
104,172
172,104
104,174
174,104
104,175
175,104
104,176
176,104
104,177
177,104
104,181
181,104
104,184
184,104
104,189
189,104
104,191
191,104
104,192
192,104
104,200
200,104
104,203
203,104
105,108
108,105
105,111
111,105
105,128
128,105
105,130
130,105
105,140
140,105
105,141
141,105
105,144
144,105
105,145
145,105
105,149
149,105
105,150
150,105
105,155
155,105
105,160
160,105
105,162
162,105
105,164
164,105
105,166
166,105
105,168
168,105
105,173
173,105
105,175
175,105
105,176
176,105
105,177
177,105
105,178
178,105
105,182
182,105
105,185
185,105
105,190
190,105
105,192
192,105
105,193
193,105
105,199
199,105
105,206
206,105
106,109
109,106
106,112
112,106
106,129
129,106
106,131
131,106
106,141
141,106
106,142
142,106
106,145
145,106
106,146
146,106
106,150
150,106
106,151
151,106
106,156
156,106
106,161
161,106
106,163
163,106
106,165
165,106
106,167
167,106
106,169
169,106
106,174
174,106
106,176
176,106
106,177
177,106
106,178
178,106
106,179
179,106
106,183
183,106
106,186
186,106
106,191
191,106
106,193
193,106
106,194
194,106
106,203
203,106
107,110
110,107
107,113
113,107
107,130
130,107
107,132
132,107
107,142
142,107
107,143
143,107
107,146
146,107
107,147
147,107
107,151
151,107
107,152
152,107
107,157
157,107
107,162
162,107
107,164
164,107
107,166
166,107
107,168
168,107
107,170
170,107
107,175
175,107
107,177
177,107
107,178
178,107
107,179
179,107
107,180
180,107
107,184
184,107
107,187
187,107
107,192
192,107
107,194
194,107
107,195
195,107
107,199
199,107
108,111
111,108
108,114
114,108
108,131
131,108
108,133
133,108
108,143
143,108
108,144
144,108
108,147
147,108
108,148
148,108
108,152
152,108
108,153
153,108
108,158
158,108
108,163
163,108
108,165
165,108
108,167
167,108
108,169
169,108
108,171
171,108
108,176
176,108
108,178
178,108
108,179
179,108
108,180
180,108
108,181
181,108
108,185
185,108
108,188
188,108
108,193
193,108
108,195
195,108
108,196
196,108
108,203
203,108
108,204
204,108
109,112
112,109
109,115
115,109
109,132
132,109
109,134
134,109
109,144
144,109
109,145
145,109
109,148
148,109
109,149
149,109
109,153
153,109
109,154
154,109
109,159
159,109
109,164
164,109
109,166
166,109
109,168
168,109
109,170
170,109
109,172
172,109
109,177
177,109
109,179
179,109
109,180
180,109
109,181
181,109
109,182
182,109
109,186
186,109
109,189
189,109
109,194
194,109
109,196
196,109
109,197
197,109
109,200
200,109
110,113
113,110
110,116
116,110
110,133
133,110
110,135
135,110
110,145
145,110
110,146
146,110
110,149
149,110
110,150
150,110
110,154
154,110
110,155
155,110
110,160
160,110
110,165
165,110
110,167
167,110
110,169
169,110
110,171
171,110
110,173
173,110
110,178
178,110
110,180
180,110
110,181
181,110
110,182
182,110
110,183
183,110
110,187
187,110
110,190
190,110
110,195
195,110
110,197
197,110
110,198
198,110
110,203
203,110
111,114
114,111
111,117
117,111
111,134
134,111
111,136
136,111
111,146
146,111
111,147
147,111
111,150
150,111
111,151
151,111
111,155
155,111
111,156
156,111
111,161
161,111
111,166
166,111
111,168
168,111
111,170
170,111
111,172
172,111
111,174
174,111
111,179
179,111
111,181
181,111
111,182
182,111
111,183
183,111
111,184
184,111
111,188
188,111
111,191
191,111
111,196
196,111
111,198
198,111
111,200
200,111
111,206
206,111
112,115
115,112
112,118
118,112
112,135
135,112
112,137
137,112
112,147
147,112
112,148
148,112
112,151
151,112
112,152
152,112
112,156
156,112
112,157
157,112
112,162
162,112
112,167
167,112
112,169
169,112
112,171
171,112
112,173
173,112
112,175
175,112
112,180
180,112
112,182
182,112
112,183
183,112
112,184
184,112
112,185
185,112
112,189
189,112
112,192
192,112
112,197
197,112
112,199
199,112
112,202
202,112
113,116
116,113
113,119
119,113
113,136
136,113
113,138
138,113
113,148
148,113
113,149
149,113
113,152
152,113
113,153
153,113
113,157
157,113
113,158
158,113
113,163
163,113
113,168
168,113
113,170
170,113
113,172
172,113
113,174
174,113
113,176
176,113
113,181
181,113
113,183
183,113
113,184
184,113
113,185
185,113
113,186
186,113
113,190
190,113
113,193
193,113
113,198
198,113
113,200
200,113
113,208
208,113
114,117
117,114
114,120
120,114
114,137
137,114
114,139
139,114
114,149
149,114
114,150
150,114
114,153
153,114
114,154
154,114
114,158
158,114
114,159
159,114
114,164
164,114
114,169
169,114
114,171
171,114
114,173
173,114
114,175
175,114
114,177
177,114
114,182
182,114
114,184
184,114
114,185
185,114
114,186
186,114
114,187
187,114
114,191
191,114
114,194
194,114
114,202
202,114
114,204
204,114
115,118
118,115
115,121
121,115
115,138
138,115
115,140
140,115
115,150
150,115
115,151
151,115
115,154
154,115
115,155
155,115
115,159
159,115
115,160
160,115
115,165
165,115
115,170
170,115
115,172
172,115
115,174
174,115
115,176
176,115
115,178
178,115
115,183
183,115
115,185
185,115
115,186
186,115
115,187
187,115
115,188
188,115
115,192
192,115
115,195
195,115
115,200
200,115
115,203
203,115
115,205
205,115
115,207
207,115
115,208
208,115
116,119
119,116
116,122
122,116
116,139
139,116
116,141
141,116
116,151
151,116
116,152
152,116
116,155
155,116
116,156
156,116
116,160
160,116
116,161
161,116
116,166
166,116
116,171
171,116
116,173
173,116
116,175
175,116
116,177
177,116
116,179
179,116
116,184
184,116
116,186
186,116
116,187
187,116
116,188
188,116
116,189
189,116
116,193
193,116
116,196
196,116
116,207
207,116
117,120
120,117
117,123
123,117
117,140
140,117
117,142
142,117
117,152
152,117
117,153
153,117
117,156
156,117
117,157
157,117
117,161
161,117
117,162
162,117
117,167
167,117
117,172
172,117
117,174
174,117
117,176
176,117
117,178
178,117
117,180
180,117
117,185
185,117
117,187
187,117
117,188
188,117
117,189
189,117
117,190
190,117
117,194
194,117
117,197
197,117
117,199
199,117
118,121
121,118
118,124
124,118
118,141
141,118
118,143
143,118
118,153
153,118
118,154
154,118
118,157
157,118
118,158
158,118
118,162
162,118
118,163
163,118
118,168
168,118
118,173
173,118
118,175
175,118
118,177
177,118
118,179
179,118
118,181
181,118
118,186
186,118
118,188
188,118
118,189
189,118
118,190
190,118
118,191
191,118
118,195
195,118
118,198
198,118
118,199
199,118
118,201
201,118
119,122
122,119
119,125
125,119
119,142
142,119
119,144
144,119
119,154
154,119
119,155
155,119
119,158
158,119
119,159
159,119
119,163
163,119
119,164
164,119
119,169
169,119
119,174
174,119
119,176
176,119
119,178
178,119
119,180
180,119
119,182
182,119
119,187
187,119
119,189
189,119
119,190
190,119
119,191
191,119
119,192
192,119
119,196
196,119
119,203
203,119
119,204
204,119
120,123
123,120
120,126
126,120
120,143
143,120
120,145
145,120
120,155
155,120
120,156
156,120
120,159
159,120
120,160
160,120
120,164
164,120
120,165
165,120
120,170
170,120
120,175
175,120
120,177
177,120
120,179
179,120
120,181
181,120
120,183
183,120
120,188
188,120
120,190
190,120
120,191
191,120
120,192
192,120
120,193
193,120
120,197
197,120
120,203
203,120
121,124
124,121
121,127
127,121
121,144
144,121
121,146
146,121
121,156
156,121
121,157
157,121
121,160
160,121
121,161
161,121
121,165
165,121
121,166
166,121
121,171
171,121
121,176
176,121
121,178
178,121
121,180
180,121
121,182
182,121
121,184
184,121
121,189
189,121
121,191
191,121
121,192
192,121
121,193
193,121
121,194
194,121
121,198
198,121
121,201
201,121
122,125
125,122
122,128
128,122
122,145
145,122
122,147
147,122
122,157
157,122
122,158
158,122
122,161
161,122
122,162
162,122
122,166
166,122
122,167
167,122
122,172
172,122
122,177
177,122
122,179
179,122
122,181
181,122
122,183
183,122
122,185
185,122
122,190
190,122
122,192
192,122
122,193
193,122
122,194
194,122
122,195
195,122
122,199
199,122
123,126
126,123
123,129
129,123
123,146
146,123
123,148
148,123
123,158
158,123
123,159
159,123
123,162
162,123
123,163
163,123
123,167
167,123
123,168
168,123
123,173
173,123
123,178
178,123
123,180
180,123
123,182
182,123
123,184
184,123
123,186
186,123
123,191
191,123
123,193
193,123
123,194
194,123
123,195
195,123
123,196
196,123
123,199
199,123
123,204
204,123
124,127
127,124
124,130
130,124
124,147
147,124
124,149
149,124
124,159
159,124
124,160
160,124
124,163
163,124
124,164
164,124
124,168
168,124
124,169
169,124
124,174
174,124
124,179
179,124
124,181
181,124
124,183
183,124
124,185
185,124
124,187
187,124
124,192
192,124
124,194
194,124
124,195
195,124
124,196
196,124
124,197
197,124
124,202
202,124
125,128
128,125
125,131
131,125
125,148
148,125
125,150
150,125
125,160
160,125
125,161
161,125
125,164
164,125
125,165
165,125
125,169
169,125
125,170
170,125
125,175
175,125
125,180
180,125
125,182
182,125
125,184
184,125
125,186
186,125
125,188
188,125
125,193
193,125
125,195
195,125
125,196
196,125
125,197
197,125
125,198
198,125
125,202
202,125
125,204
204,125
125,207
207,125
126,129
129,126
126,132
132,126
126,149
149,126
126,151
151,126
126,161
161,126
126,162
162,126
126,165
165,126
126,166
166,126
126,170
170,126
126,171
171,126
126,176
176,126
126,181
181,126
126,183
183,126
126,185
185,126
126,187
187,126
126,189
189,126
126,194
194,126
126,196
196,126
126,197
197,126
126,198
198,126
126,199
199,126
126,205
205,126
127,130
130,127
127,133
133,127
127,150
150,127
127,152
152,127
127,162
162,127
127,163
163,127
127,166
166,127
127,167
167,127
127,171
171,127
127,172
172,127
127,177
177,127
127,182
182,127
127,184
184,127
127,186
186,127
127,188
188,127
127,190
190,127
127,195
195,127
127,197
197,127
127,198
198,127
127,199
199,127
127,204
204,127
128,131
131,128
128,134
134,128
128,151
151,128
128,153
153,128
128,163
163,128
128,164
164,128
128,167
167,128
128,168
168,128
128,172
172,128
128,173
173,128
128,178
178,128
128,183
183,128
128,185
185,128
128,187
187,128
128,189
189,128
128,191
191,128
128,196
196,128
128,198
198,128
128,200
200,128
128,202
202,128
128,208
208,128
129,132
132,129
129,135
135,129
129,152
152,129
129,154
154,129
129,164
164,129
129,165
165,129
129,168
168,129
129,169
169,129
129,173
173,129
129,174
174,129
129,179
179,129
129,184
184,129
129,186
186,129
129,188
188,129
129,190
190,129
129,192
192,129
129,197
197,129
129,202
202,129
129,207
207,129
130,133
133,130
130,136
136,130
130,153
153,130
130,155
155,130
130,165
165,130
130,166
166,130
130,169
169,130
130,170
170,130
130,174
174,130
130,175
175,130
130,180
180,130
130,185
185,130
130,187
187,130
130,189
189,130
130,191
191,130
130,193
193,130
130,198
198,130
130,205
205,130
131,134
134,131
131,137
137,131
131,154
154,131
131,156
156,131
131,166
166,131
131,167
167,131
131,170
170,131
131,171
171,131
131,175
175,131
131,176
176,131
131,181
181,131
131,186
186,131
131,188
188,131
131,190
190,131
131,192
192,131
131,194
194,131
131,205
205,131
132,135
135,132
132,138
138,132
132,155
155,132
132,157
157,132
132,167
167,132
132,168
168,132
132,171
171,132
132,172
172,132
132,176
176,132
132,177
177,132
132,182
182,132
132,187
187,132
132,189
189,132
132,191
191,132
132,193
193,132
132,195
195,132
132,200
200,132
132,203
203,132
132,204
204,132
133,136
136,133
133,139
139,133
133,156
156,133
133,158
158,133
133,168
168,133
133,169
169,133
133,172
172,133
133,173
173,133
133,177
177,133
133,178
178,133
133,183
183,133
133,188
188,133
133,190
190,133
133,192
192,133
133,194
194,133
133,196
196,133
133,200
200,133
134,137
137,134
134,140
140,134
134,157
157,134
134,159
159,134
134,169
169,134
134,170
170,134
134,173
173,134
134,174
174,134
134,178
178,134
134,179
179,134
134,184
184,134
134,189
189,134
134,191
191,134
134,193
193,134
134,195
195,134
134,197
197,134
134,202
202,134
134,203
203,134
134,204
204,134
135,138
138,135
135,141
141,135
135,158
158,135
135,160
160,135
135,170
170,135
135,171
171,135
135,174
174,135
135,175
175,135
135,179
179,135
135,180
180,135
135,185
185,135
135,190
190,135
135,192
192,135
135,194
194,135
135,196
196,135
135,198
198,135
135,203
203,135
135,208
208,135
136,139
139,136
136,142
142,136
136,159
159,136
136,161
161,136
136,171
171,136
136,172
172,136
136,175
175,136
136,176
176,136
136,180
180,136
136,181
181,136
136,186
186,136
136,191
191,136
136,193
193,136
136,195
195,136
136,197
197,136
136,200
200,136
137,140
140,137
137,143
143,137
137,160
160,137
137,162
162,137
137,172
172,137
137,173
173,137
137,176
176,137
137,177
177,137
137,181
181,137
137,182
182,137
137,187
187,137
137,192
192,137
137,194
194,137
137,196
196,137
137,198
198,137
137,199
199,137
137,204
204,137
138,141
141,138
138,144
144,138
138,161
161,138
138,163
163,138
138,173
173,138
138,174
174,138
138,177
177,138
138,178
178,138
138,182
182,138
138,183
183,138
138,188
188,138
138,193
193,138
138,195
195,138
138,197
197,138
138,201
201,138
138,207
207,138
139,142
142,139
139,145
145,139
139,162
162,139
139,164
164,139
139,174
174,139
139,175
175,139
139,178
178,139
139,179
179,139
139,183
183,139
139,184
184,139
139,189
189,139
139,194
194,139
139,196
196,139
139,198
198,139
139,199
199,139
139,202
202,139
140,143
143,140
140,146
146,140
140,163
163,140
140,165
165,140
140,175
175,140
140,176
176,140
140,179
179,140
140,180
180,140
140,184
184,140
140,185
185,140
140,190
190,140
140,195
195,140
140,197
197,140
140,201
201,140
141,144
144,141
141,147
147,141
141,164
164,141
141,166
166,141
141,176
176,141
141,177
177,141
141,180
180,141
141,181
181,141
141,185
185,141
141,186
186,141
141,191
191,141
141,196
196,141
141,198
198,141
141,204
204,141
142,145
145,142
142,148
148,142
142,165
165,142
142,167
167,142
142,177
177,142
142,178
178,142
142,181
181,142
142,182
182,142
142,186
186,142
142,187
187,142
142,192
192,142
142,197
197,142
142,205
205,142
142,207
207,142
143,146
146,143
143,149
149,143
143,166
166,143
143,168
168,143
143,178
178,143
143,179
179,143
143,182
182,143
143,183
183,143
143,187
187,143
143,188
188,143
143,193
193,143
143,198
198,143
143,206
206,143
144,147
147,144
144,150
150,144
144,167
167,144
144,169
169,144
144,179
179,144
144,180
180,144
144,183
183,144
144,184
184,144
144,188
188,144
144,189
189,144
144,194
194,144
144,202
202,144
144,204
204,144
144,205
205,144
145,148
148,145
145,151
151,145
145,168
168,145
145,170
170,145
145,180
180,145
145,181
181,145
145,184
184,145
145,185
185,145
145,189
189,145
145,190
190,145
145,195
195,145
145,203
203,145
145,208
208,145
146,149
149,146
146,152
152,146
146,169
169,146
146,171
171,146
146,181
181,146
146,182
182,146
146,185
185,146
146,186
186,146
146,190
190,146
146,191
191,146
146,196
196,146
146,202
202,146
146,205
205,146
147,150
150,147
147,153
153,147
147,170
170,147
147,172
172,147
147,182
182,147
147,183
183,147
147,186
186,147
147,187
187,147
147,191
191,147
147,192
192,147
147,197
197,147
147,200
200,147
147,207
207,147
148,151
151,148
148,154
154,148
148,171
171,148
148,173
173,148
148,183
183,148
148,184
184,148
148,187
187,148
148,188
188,148
148,192
192,148
148,193
193,148
148,198
198,148
148,202
202,148
148,203
203,148
148,206
206,148
149,152
152,149
149,155
155,149
149,172
172,149
149,174
174,149
149,184
184,149
149,185
185,149
149,188
188,149
149,189
189,149
149,193
193,149
149,194
194,149
149,200
200,149
150,153
153,150
150,156
156,150
150,173
173,150
150,175
175,150
150,185
185,150
150,186
186,150
150,189
189,150
150,190
190,150
150,194
194,150
150,195
195,150
150,201
201,150
150,202
202,150
151,154
154,151
151,157
157,151
151,174
174,151
151,176
176,151
151,186
186,151
151,187
187,151
151,190
190,151
151,191
191,151
151,195
195,151
151,196
196,151
151,201
201,151
151,205
205,151
152,155
155,152
152,158
158,152
152,175
175,152
152,177
177,152
152,187
187,152
152,188
188,152
152,191
191,152
152,192
192,152
152,196
196,152
152,197
197,152
152,202
202,152
153,156
156,153
153,159
159,153
153,176
176,153
153,178
178,153
153,188
188,153
153,189
189,153
153,192
192,153
153,193
193,153
153,197
197,153
153,198
198,153
153,206
206,153
154,157
157,154
154,160
160,154
154,177
177,154
154,179
179,154
154,189
189,154
154,190
190,154
154,193
193,154
154,194
194,154
154,198
198,154
154,201
201,154
154,208
208,154
155,158
158,155
155,161
161,155
155,178
178,155
155,180
180,155
155,190
190,155
155,191
191,155
155,194
194,155
155,195
195,155
155,201
201,155
156,159
159,156
156,162
162,156
156,179
179,156
156,181
181,156
156,191
191,156
156,192
192,156
156,195
195,156
156,196
196,156
156,199
199,156
157,160
160,157
157,163
163,157
157,180
180,157
157,182
182,157
157,192
192,157
157,193
193,157
157,196
196,157
157,197
197,157
157,202
202,157
157,205
205,157
158,161
161,158
158,164
164,158
158,181
181,158
158,183
183,158
158,193
193,158
158,194
194,158
158,197
197,158
158,198
198,158
158,203
203,158
158,206
206,158
159,162
162,159
159,165
165,159
159,182
182,159
159,184
184,159
159,194
194,159
159,195
195,159
159,198
198,159
159,199
199,159
159,201
201,159
159,202
202,159
160,163
163,160
160,166
166,160
160,183
183,160
160,185
185,160
160,195
195,160
160,196
196,160
160,201
201,160
160,202
202,160
161,164
164,161
161,167
167,161
161,184
184,161
161,186
186,161
161,196
196,161
161,197
197,161
161,202
202,161
161,203
203,161
162,165
165,162
162,168
168,162
162,185
185,162
162,187
187,162
162,197
197,162
162,198
198,162
162,202
202,162
162,203
203,162
162,206
206,162
162,207
207,162
163,166
166,163
163,169
169,163
163,186
186,163
163,188
188,163
163,198
198,163
164,167
167,164
164,170
170,164
164,187
187,164
164,189
189,164
165,168
168,165
165,171
171,165
165,188
188,165
165,190
190,165
165,199
199,165
165,204
204,165
166,169
169,166
166,172
172,166
166,189
189,166
166,191
191,166
166,200
200,166
166,203
203,166
166,208
208,166
167,170
170,167
167,173
173,167
167,190
190,167
167,192
192,167
167,205
205,167
167,206
206,167
168,171
171,168
168,174
174,168
168,191
191,168
168,193
193,168
168,199
199,168
168,207
207,168
169,172
172,169
169,175
175,169
169,192
192,169
169,194
194,169
169,200
200,169
169,202
202,169
169,206
206,169
170,173
173,170
170,176
176,170
170,193
193,170
170,195
195,170
170,201
201,170
170,206
206,170
171,174
174,171
171,177
177,171
171,194
194,171
171,196
196,171
171,206
206,171
172,175
175,172
172,178
178,172
172,195
195,172
172,197
197,172
172,201
201,172
172,204
204,172
172,205
205,172
172,208
208,172
173,176
176,173
173,179
179,173
173,196
196,173
173,198
198,173
173,203
203,173
173,205
205,173
174,177
177,174
174,180
180,174
174,197
197,174
174,201
201,174
174,202
202,174
175,178
178,175
175,181
181,175
175,198
198,175
175,200
200,175
176,179
179,176
176,182
182,176
176,201
201,176
176,202
202,176
176,203
203,176
177,180
180,177
177,183
183,177
177,202
202,177
177,207
207,177
178,181
181,178
178,184
184,178
178,201
201,178
178,203
203,178
179,182
182,179
179,185
185,179
179,206
206,179
180,183
183,180
180,186
186,180
180,206
206,180
181,184
184,181
181,187
187,181
181,205
205,181
182,185
185,182
182,188
188,182
183,186
186,183
183,189
189,183
183,201
201,183
183,203
203,183
184,187
187,184
184,190
190,184
184,206
206,184
185,188
188,185
185,191
191,185
185,199
199,185
185,201
201,185
185,208
208,185
186,189
189,186
186,192
192,186
186,201
201,186
186,208
208,186
187,190
190,187
187,193
193,187
187,199
199,187
187,202
202,187
188,191
191,188
188,194
194,188
188,201
201,188
188,206
206,188
189,192
192,189
189,195
195,189
189,203
203,189
189,205
205,189
190,193
193,190
190,196
196,190
190,204
204,190
190,208
208,190
191,194
194,191
191,197
197,191
191,203
203,191
192,195
195,192
192,198
198,192
192,201
201,192
193,196
196,193
193,206
206,193
194,197
197,194
194,207
207,194
195,198
198,195
195,200
200,195
195,201
201,195
196,203
203,196
196,206
206,196
197,199
199,197
197,200
200,197
198,199
199,198
198,207
207,198
199,200
200,199
199,201
201,199
199,204
204,199
199,205
205,199
199,208
208,199
200,201
201,200
200,202
202,200
200,203
203,200
200,206
206,200
200,207
207,200
201,202
202,201
201,204
204,201
201,206
206,201
202,203
203,202
202,205
205,202
202,207
207,202
202,208
208,202
203,204
204,203
203,205
205,203
203,206
206,203
203,208
208,203
204,205
205,204
204,207
207,204
204,208
208,204
205,206
206,205
205,207
207,205
206,207
207,206
206,208
208,206
207,208
208,207
